Primitive Cell                          
   1.00000000000000     
     5.0585989069255959   -0.0091616810466818    0.0119006110933000
     0.0145192991479765    6.3839622215376659   -0.0330211544003022
     2.5109614867759635    0.0549827124250314    7.1517861711158686
   Li   C    O    F 
     8     2     6     4
Selective dynamics
Direct
  0.5375146309227219  0.5146848439793743  0.8389382925350262   T   T   T
  0.1168233560214631  0.3221670529652698  0.6813772085232586   T   T   T
  0.2329559286799139  0.0296237390476151  0.4323633026813312   T   T   T
  0.4082358932760428  0.8144877350270363  0.0808994804581289   T   T   T
  0.7985552772553746  0.5379448798169477  0.0902284368734882   T   T   T
  0.6347863714313604  0.0113191066236453  0.6684450708483709   T   T   T
  0.6295050037403556  0.3058229352714932  0.4302644851386148   T   T   T
  0.0455694720329518  0.8258648390808290  0.8456137879887606   T   T   T
  0.2058709272694941  0.4232073660264390  0.2607165787704346   T   T   T
  0.8320997902780292  0.9232271866370070  0.2561000280317032   T   T   T
  0.6298081727619547  0.9901073323159721  0.4023890022044583   T   T   T
  0.7755225195794822  0.8541515589326920  0.1107165617609027   T   T   T
  0.2655317646242779  0.3468402195371780  0.4025009403921587   T   T   T
  0.4068935965383460  0.4980517094110368  0.1177992529216496   T   T   T
  0.9510901384908834  0.4245909834593178  0.2616181910518947   T   T   T
  0.0864065124660129  0.9252208587067514  0.2552636025136366   T   T   T
  0.4261222250810661  0.8041241729339461  0.8293389402682791   T   T   T
  0.9997201495977137  0.0327045032140134  0.6840240102879278   T   T   T
  0.4908642897531905  0.2973856208857626  0.6929631597510237   T   T   T
  0.9226454900171532  0.5393724470112673  0.8272714436177111   T   T   T
 
  0.00000000E+00  0.00000000E+00  0.00000000E+00
  0.00000000E+00  0.00000000E+00  0.00000000E+00
  0.00000000E+00  0.00000000E+00  0.00000000E+00
  0.00000000E+00  0.00000000E+00  0.00000000E+00
  0.00000000E+00  0.00000000E+00  0.00000000E+00
  0.00000000E+00  0.00000000E+00  0.00000000E+00
  0.00000000E+00  0.00000000E+00  0.00000000E+00
  0.00000000E+00  0.00000000E+00  0.00000000E+00
  0.00000000E+00  0.00000000E+00  0.00000000E+00
  0.00000000E+00  0.00000000E+00  0.00000000E+00
  0.00000000E+00  0.00000000E+00  0.00000000E+00
  0.00000000E+00  0.00000000E+00  0.00000000E+00
  0.00000000E+00  0.00000000E+00  0.00000000E+00
  0.00000000E+00  0.00000000E+00  0.00000000E+00
  0.00000000E+00  0.00000000E+00  0.00000000E+00
  0.00000000E+00  0.00000000E+00  0.00000000E+00
  0.00000000E+00  0.00000000E+00  0.00000000E+00
  0.00000000E+00  0.00000000E+00  0.00000000E+00
  0.00000000E+00  0.00000000E+00  0.00000000E+00
  0.00000000E+00  0.00000000E+00  0.00000000E+00
