Primitive Cell                          
   1.00000000000000     
     5.1172730620652436    0.0000000000000000    0.0000000000000000
     0.0000000000000000    5.3116652589333135   -0.0121717867625313
     0.0000000000000000    0.1266229158630821    8.6507416451896848
   Li   C    O    F 
     8     2     6     4
Selective dynamics
Direct
  0.2039546446908957  0.5652572999993737  0.3157685769060166   T   T   T
  0.3217152184690519  0.8033943466447866  0.6715418772885684   T   T   T
  0.2035795755128973  0.0372540432510533  0.3132046465306360   T   T   T
  0.7964204244871027  0.0372540432510533  0.8132046465306360   T   T   T
  0.1768679000058810  0.7993127230405506  0.9686088801206338   T   T   T
  0.7960453553091043  0.5652572999993737  0.8157685769060166   T   T   T
  0.6782847815309481  0.8033943466447866  0.1715418772885684   T   T   T
  0.8231320999941190  0.7993127230405506  0.4686088801206338   T   T   T
  0.6932354833462782  0.3011285515427815  0.3152346044740852   T   T   T
  0.3067645166537218  0.3011285515427815  0.8152346044740852   T   T   T
  0.4429402644461646  0.3008018227789790  0.3253225037793825   T   T   T
  0.1789525743860310  0.5143527111477297  0.8111714390457792   T   T   T
  0.5570597355538354  0.3008018227789790  0.8253225037793825   T   T   T
  0.8209505842817109  0.0881907794423853  0.3086631495885541   T   T   T
  0.8210474256139690  0.5143527111477297  0.3111714390457792   T   T   T
  0.1790494157182891  0.0881907794423853  0.8086631495885541   T   T   T
  0.8106042692365207  0.7993898105194859  0.9762090332648796   T   T   T
  0.6880803419301174  0.8031669660176561  0.6631874445106192   T   T   T
  0.3119196580698826  0.8031669660176561  0.1631874445106192   T   T   T
  0.1893957307634793  0.7993898105194859  0.4762090332648796   T   T   T
 
  0.00000000E+00  0.00000000E+00  0.00000000E+00
  0.00000000E+00  0.00000000E+00  0.00000000E+00
  0.00000000E+00  0.00000000E+00  0.00000000E+00
  0.00000000E+00  0.00000000E+00  0.00000000E+00
  0.00000000E+00  0.00000000E+00  0.00000000E+00
  0.00000000E+00  0.00000000E+00  0.00000000E+00
  0.00000000E+00  0.00000000E+00  0.00000000E+00
  0.00000000E+00  0.00000000E+00  0.00000000E+00
  0.00000000E+00  0.00000000E+00  0.00000000E+00
  0.00000000E+00  0.00000000E+00  0.00000000E+00
  0.00000000E+00  0.00000000E+00  0.00000000E+00
  0.00000000E+00  0.00000000E+00  0.00000000E+00
  0.00000000E+00  0.00000000E+00  0.00000000E+00
  0.00000000E+00  0.00000000E+00  0.00000000E+00
  0.00000000E+00  0.00000000E+00  0.00000000E+00
  0.00000000E+00  0.00000000E+00  0.00000000E+00
  0.00000000E+00  0.00000000E+00  0.00000000E+00
  0.00000000E+00  0.00000000E+00  0.00000000E+00
  0.00000000E+00  0.00000000E+00  0.00000000E+00
  0.00000000E+00  0.00000000E+00  0.00000000E+00
