Primitive Cell                          
   1.00000000000000     
     5.0077202022571976    0.0022749183882731   -0.0123600904253876
     2.5069876023030844    7.1456573029353496   -0.5268140699280955
     0.0879811593838870    1.9507482528735349    8.3102108705723143
   Li   C    O    F 
    12     3     9     6
Selective dynamics
Direct
  0.6662605795194381  0.8207177561218089  0.9350313210425227   T   T   T
  0.1181631213526302  0.1223060135603333  0.2747966072448946   T   T   T
  0.3813376469617822  0.6360086841837784  0.8153166476177702   T   T   T
  0.9267484587179524  0.5493675947702386  0.2766924987463426   T   T   T
  0.8404714619797886  0.6814996032701970  0.6186069583215783   T   T   T
  0.6359246337779325  0.0929634511177539  0.4890290690309769   T   T   T
  0.0632772770698011  0.2689388484331019  0.5991720968906193   T   T   T
  0.5287106398428776  0.3442911421016746  0.1499256804509841   T   T   T
  0.0080570597739182  0.3906362740032918  0.9533102782681269   T   T   T
  0.4404780687030154  0.5240931919759220  0.4765038497204941   T   T   T
  0.2946329705823558  0.7651344142479175  0.1496851169697990   T   T   T
  0.4713815749886763  0.2263402472439182  0.8080301436520756   T   T   T
  0.2488063968523235  0.8913136596251263  0.5553492050344389   T   T   T
  0.7171400607578633  0.9443781375546365  0.2138804589806682   T   T   T
  0.0543701999038646  0.0189600205971985  0.8732763556879704   T   T   T
  0.1973657123573460  0.7322114974478495  0.5938303411310244   T   T   T
  0.6576240703878966  0.7997461044727601  0.1778049777514283   T   T   T
  0.2610935477289971  0.8609288269596007  0.9178163929797947   T   T   T
  0.5161498429733697  0.0930225975669785  0.2478397199728803   T   T   T
  0.1096979987014990  0.1758643143588543  0.8340755611875110   T   T   T
  0.9747737449953178  0.9401081075263704  0.2168477585811388   T   T   T
  0.5046326993410091  0.8906094814186289  0.5632668787082054   T   T   T
  0.7985588140886719  0.0202261781738571  0.8663657535768863   T   T   T
  0.0427574390237808  0.0501058050021115  0.5102597178964459   T   T   T
  0.9005307903941002  0.3587444825532202  0.1641428093671351   T   T   T
  0.3765004963053258  0.4143887911741260  0.9385623529743512   T   T   T
  0.7758070943812427  0.6083424991441859  0.8328987208242324   T   T   T
  0.8281977793240358  0.4990149390718130  0.4905307585303689   T   T   T
  0.4260107731891907  0.2979859550730737  0.5869620362710748   T   T   T
  0.3145785667814778  0.5311167845079510  0.2661777350172159   T   T   T
 
  0.00000000E+00  0.00000000E+00  0.00000000E+00
  0.00000000E+00  0.00000000E+00  0.00000000E+00
  0.00000000E+00  0.00000000E+00  0.00000000E+00
  0.00000000E+00  0.00000000E+00  0.00000000E+00
  0.00000000E+00  0.00000000E+00  0.00000000E+00
  0.00000000E+00  0.00000000E+00  0.00000000E+00
  0.00000000E+00  0.00000000E+00  0.00000000E+00
  0.00000000E+00  0.00000000E+00  0.00000000E+00
  0.00000000E+00  0.00000000E+00  0.00000000E+00
  0.00000000E+00  0.00000000E+00  0.00000000E+00
  0.00000000E+00  0.00000000E+00  0.00000000E+00
  0.00000000E+00  0.00000000E+00  0.00000000E+00
  0.00000000E+00  0.00000000E+00  0.00000000E+00
  0.00000000E+00  0.00000000E+00  0.00000000E+00
  0.00000000E+00  0.00000000E+00  0.00000000E+00
  0.00000000E+00  0.00000000E+00  0.00000000E+00
  0.00000000E+00  0.00000000E+00  0.00000000E+00
  0.00000000E+00  0.00000000E+00  0.00000000E+00
  0.00000000E+00  0.00000000E+00  0.00000000E+00
  0.00000000E+00  0.00000000E+00  0.00000000E+00
  0.00000000E+00  0.00000000E+00  0.00000000E+00
  0.00000000E+00  0.00000000E+00  0.00000000E+00
  0.00000000E+00  0.00000000E+00  0.00000000E+00
  0.00000000E+00  0.00000000E+00  0.00000000E+00
  0.00000000E+00  0.00000000E+00  0.00000000E+00
  0.00000000E+00  0.00000000E+00  0.00000000E+00
  0.00000000E+00  0.00000000E+00  0.00000000E+00
  0.00000000E+00  0.00000000E+00  0.00000000E+00
  0.00000000E+00  0.00000000E+00  0.00000000E+00
  0.00000000E+00  0.00000000E+00  0.00000000E+00
