Primitive Cell                          
   1.00000000000000     
     3.1712612774051490   -0.0074682931934294   -0.0154735510558607
    -0.0875069978931652    4.7480091118414007    0.0040369576911400
    -0.6628669510507482    0.0032854289163968   26.4604825450128942
   Li   C    O    F 
    16     4    12     8
Selective dynamics
Direct
  0.0606463640722126  0.9817312584614655  0.9928482281746298   T   T   T
  0.4377293943613125  0.9794531027872182  0.4926845666764592   T   T   T
  0.9307720283407122  0.5185849186815190  0.7249572878327157   T   T   T
  0.5450792399499420  0.5145881090162518  0.2248569764744204   T   T   T
  0.9185737262307754  0.0173524410584562  0.5892376651463422   T   T   T
  0.5419449771711911  0.0188501590087498  0.0893853333955050   T   T   T
  0.5061868751338210  0.4798963896005404  0.8215007428448189   T   T   T
  0.0321604612207125  0.4839698072377985  0.3214690814919052   T   T   T
  0.0862873005127369  0.4016699487707314  0.9260384641802233   T   T   T
  0.5186864731089926  0.3971832531075918  0.4254956098952078   T   T   T
  0.4073725903196177  0.0322271865963302  0.6935548975795172   T   T   T
  0.0552464819994469  0.0296673400518657  0.1936924808199976   T   T   T
  0.4074376499281200  0.5319051994523605  0.6206405612385240   T   T   T
  0.0247746975488852  0.5318861135748776  0.1205753053410064   T   T   T
  0.5771883239055100  0.9011767297393263  0.8883059553018171   T   T   T
  0.9366057131418231  0.8981273826136515  0.3886198418356486   T   T   T
  0.4411739199416758  0.5336564975972564  0.0338867095366879   T   T   T
  0.8274897283329850  0.5306683875470384  0.5338926863673521   T   T   T
  0.8659307831197012  0.0323894279346675  0.7802697382348498   T   T   T
  0.6296873092541446  0.0285277554829548  0.2803912594300755   T   T   T
  0.5412113229425728  0.7987822403029554  0.0260710397415309   T   T   T
  0.6538091417125429  0.3773184722739344  0.4992275385810814   T   T   T
  0.7023052189276271  0.8808294670728216  0.8147545324111363   T   T   T
  0.5423179738935318  0.2927166734975799  0.2881926566048350   T   T   T
  0.2593010613597571  0.3829065237357625  0.9993983034156102   T   T   T
  0.9227148408595554  0.7963905465293806  0.5259906757288491   T   T   T
  0.9188297201484659  0.9285985237294483  0.7347546428838641   T   T   T
  0.5568483138905975  0.9251300934169464  0.2346253527051587   T   T   T
  0.9002891721407167  0.4276532377899258  0.5795497315183340   T   T   T
  0.5178415464704997  0.4289228671748191  0.0793524424894372   T   T   T
  0.9696068540007019  0.2974001181905592  0.7881735478391789   T   T   T
  0.7947536861018420  0.8758539940237569  0.3151876397229358   T   T   T
  0.4235397610018268  0.9306541825938268  0.6256354861282389   T   T   T
  0.0479184404994655  0.9301505017144862  0.1255532806715181   T   T   T
  0.5684047268611607  0.4946515725152452  0.8914627986249926   T   T   T
  0.0108537634439401  0.4953011954132478  0.3913907254558069   T   T   T
  0.0768921365271282  0.9951353171474793  0.9228136660547861   T   T   T
  0.4497119895314512  0.9952202614000072  0.4226435004657390   T   T   T
  0.4172844691697080  0.4309523390794041  0.6887456596582453   T   T   T
  0.0344374799972371  0.4284456156173135  0.1885925872181033   T   T   T
 
  0.00000000E+00  0.00000000E+00  0.00000000E+00
  0.00000000E+00  0.00000000E+00  0.00000000E+00
  0.00000000E+00  0.00000000E+00  0.00000000E+00
  0.00000000E+00  0.00000000E+00  0.00000000E+00
  0.00000000E+00  0.00000000E+00  0.00000000E+00
  0.00000000E+00  0.00000000E+00  0.00000000E+00
  0.00000000E+00  0.00000000E+00  0.00000000E+00
  0.00000000E+00  0.00000000E+00  0.00000000E+00
  0.00000000E+00  0.00000000E+00  0.00000000E+00
  0.00000000E+00  0.00000000E+00  0.00000000E+00
  0.00000000E+00  0.00000000E+00  0.00000000E+00
  0.00000000E+00  0.00000000E+00  0.00000000E+00
  0.00000000E+00  0.00000000E+00  0.00000000E+00
  0.00000000E+00  0.00000000E+00  0.00000000E+00
  0.00000000E+00  0.00000000E+00  0.00000000E+00
  0.00000000E+00  0.00000000E+00  0.00000000E+00
  0.00000000E+00  0.00000000E+00  0.00000000E+00
  0.00000000E+00  0.00000000E+00  0.00000000E+00
  0.00000000E+00  0.00000000E+00  0.00000000E+00
  0.00000000E+00  0.00000000E+00  0.00000000E+00
  0.00000000E+00  0.00000000E+00  0.00000000E+00
  0.00000000E+00  0.00000000E+00  0.00000000E+00
  0.00000000E+00  0.00000000E+00  0.00000000E+00
  0.00000000E+00  0.00000000E+00  0.00000000E+00
  0.00000000E+00  0.00000000E+00  0.00000000E+00
  0.00000000E+00  0.00000000E+00  0.00000000E+00
  0.00000000E+00  0.00000000E+00  0.00000000E+00
  0.00000000E+00  0.00000000E+00  0.00000000E+00
  0.00000000E+00  0.00000000E+00  0.00000000E+00
  0.00000000E+00  0.00000000E+00  0.00000000E+00
  0.00000000E+00  0.00000000E+00  0.00000000E+00
  0.00000000E+00  0.00000000E+00  0.00000000E+00
  0.00000000E+00  0.00000000E+00  0.00000000E+00
  0.00000000E+00  0.00000000E+00  0.00000000E+00
  0.00000000E+00  0.00000000E+00  0.00000000E+00
  0.00000000E+00  0.00000000E+00  0.00000000E+00
  0.00000000E+00  0.00000000E+00  0.00000000E+00
  0.00000000E+00  0.00000000E+00  0.00000000E+00
  0.00000000E+00  0.00000000E+00  0.00000000E+00
  0.00000000E+00  0.00000000E+00  0.00000000E+00
