Primitive Cell                          
   1.00000000000000     
     3.1527696318149516   -0.0579238315986507   -0.1153158376856990
     0.1776520217423515    3.8157433825809015   -0.0176494133414544
     0.5722834733771824    0.0442865093230920   14.4484688985597742
   Li   C    O    F 
     8     2     6     4
Selective dynamics
Direct
  0.5693301014944794  0.7497761807942780  0.6496994821027329   T   T   T
  0.4321424192192751  0.2503984008532925  0.1499617353061780   T   T   T
  0.0398540516358707  0.2476311607769546  0.5693318015830116   T   T   T
  0.9639713719237477  0.7523393830296712  0.0694926842537456   T   T   T
  0.5678575807807249  0.7496015991467075  0.8500382646938220   T   T   T
  0.4306698985055135  0.2502238192057220  0.3503005178972671   T   T   T
  0.0360286280762594  0.2476606169703288  0.9305073157462544   T   T   T
  0.9601459483641293  0.7523688392230525  0.4306681984169813   T   T   T
  0.6025838974381372  0.6396038451530544  0.2500798934551369   T   T   T
  0.3974161025618628  0.3603961548469456  0.7499201065448631   T   T   T
  0.4815274102191012  0.7736245735581235  0.3296000199923910   T   T   T
  0.5168194940997282  0.2263637777014154  0.8294037283293889   T   T   T
  0.4831805059002718  0.7736362222985846  0.1705962716706111   T   T   T
  0.5184725897808988  0.2263754264418765  0.6703999800076090   T   T   T
  0.8198384608748199  0.3524891867261672  0.2500117971645039   T   T   T
  0.1801615391251801  0.6475108132738328  0.7499882028354961   T   T   T
  0.9665362422195116  0.2511851060908583  0.0628142686439048   T   T   T
  0.0381604544785716  0.7487479749261468  0.5626584884097525   T   T   T
  0.9618395455214284  0.2512520250738532  0.4373415115902475   T   T   T
  0.0334637577804884  0.7488148939091417  0.9371857313560952   T   T   T
 
  0.00000000E+00  0.00000000E+00  0.00000000E+00
  0.00000000E+00  0.00000000E+00  0.00000000E+00
  0.00000000E+00  0.00000000E+00  0.00000000E+00
  0.00000000E+00  0.00000000E+00  0.00000000E+00
  0.00000000E+00  0.00000000E+00  0.00000000E+00
  0.00000000E+00  0.00000000E+00  0.00000000E+00
  0.00000000E+00  0.00000000E+00  0.00000000E+00
  0.00000000E+00  0.00000000E+00  0.00000000E+00
  0.00000000E+00  0.00000000E+00  0.00000000E+00
  0.00000000E+00  0.00000000E+00  0.00000000E+00
  0.00000000E+00  0.00000000E+00  0.00000000E+00
  0.00000000E+00  0.00000000E+00  0.00000000E+00
  0.00000000E+00  0.00000000E+00  0.00000000E+00
  0.00000000E+00  0.00000000E+00  0.00000000E+00
  0.00000000E+00  0.00000000E+00  0.00000000E+00
  0.00000000E+00  0.00000000E+00  0.00000000E+00
  0.00000000E+00  0.00000000E+00  0.00000000E+00
  0.00000000E+00  0.00000000E+00  0.00000000E+00
  0.00000000E+00  0.00000000E+00  0.00000000E+00
  0.00000000E+00  0.00000000E+00  0.00000000E+00
