Primitive Cell                          
   1.00000000000000     
     3.2016626806605477   -0.2354953883693831   -0.1384196090793190
     0.3707610389573840    3.8681268797729240   -0.0509865023303359
     0.3521026963142928   -0.0527034759125168   14.3263318605050092
   Li   C    O    F 
     8     2     6     4
Selective dynamics
Direct
  0.5301511134044787  0.7354556277330389  0.3591532258048531   T   T   T
  0.7665771927564862  0.2467752836654142  0.8333016138802662   T   T   T
  0.0311957942254324  0.2440179037300680  0.4295608538196376   T   T   T
  0.7391624689879848  0.7492901922931168  0.9601440804054775   T   T   T
  0.2334228072435138  0.7532247163345858  0.1666983861197338   T   T   T
  0.4698488865955213  0.2645443722669540  0.6408467741951398   T   T   T
  0.2608375310120081  0.2507098077068832  0.0398559195945225   T   T   T
  0.9688042057745676  0.7559820962699320  0.5704391461803624   T   T   T
  0.4515018400303603  0.8578756161217242  0.7475330713904214   T   T   T
  0.5484981599696397  0.1421243838782829  0.2524669286095786   T   T   T
  0.4791260503569177  0.7452318721568858  0.6602582791467668   T   T   T
  0.3630505060667772  0.2932756319423362  0.1836971249655548   T   T   T
  0.6369494939332228  0.7067243680576638  0.8163028750344452   T   T   T
  0.5208739496430823  0.2547681278431142  0.3397417208532332   T   T   T
  0.2577446448158014  0.1480204837004280  0.7611445243554229   T   T   T
  0.7422553551841986  0.8519795162995720  0.2388554756445771   T   T   T
  0.7536873594034788  0.2480097843966149  0.9632619171839707   T   T   T
  0.0397263567583721  0.7455511960192567  0.4371921668460530   T   T   T
  0.9602736432416279  0.2544488039807504  0.5628078331539470   T   T   T
  0.2463126405965212  0.7519902156033851  0.0367380828160293   T   T   T
 
  0.00000000E+00  0.00000000E+00  0.00000000E+00
  0.00000000E+00  0.00000000E+00  0.00000000E+00
  0.00000000E+00  0.00000000E+00  0.00000000E+00
  0.00000000E+00  0.00000000E+00  0.00000000E+00
  0.00000000E+00  0.00000000E+00  0.00000000E+00
  0.00000000E+00  0.00000000E+00  0.00000000E+00
  0.00000000E+00  0.00000000E+00  0.00000000E+00
  0.00000000E+00  0.00000000E+00  0.00000000E+00
  0.00000000E+00  0.00000000E+00  0.00000000E+00
  0.00000000E+00  0.00000000E+00  0.00000000E+00
  0.00000000E+00  0.00000000E+00  0.00000000E+00
  0.00000000E+00  0.00000000E+00  0.00000000E+00
  0.00000000E+00  0.00000000E+00  0.00000000E+00
  0.00000000E+00  0.00000000E+00  0.00000000E+00
  0.00000000E+00  0.00000000E+00  0.00000000E+00
  0.00000000E+00  0.00000000E+00  0.00000000E+00
  0.00000000E+00  0.00000000E+00  0.00000000E+00
  0.00000000E+00  0.00000000E+00  0.00000000E+00
  0.00000000E+00  0.00000000E+00  0.00000000E+00
  0.00000000E+00  0.00000000E+00  0.00000000E+00
