Primitive Cell                          
   1.00000000000000     
     6.3647640909353349   -1.0662171857920566    0.0003316350343716
     0.8462952547581208    4.0625086613712709    0.0991855451741447
     2.2816409417101307    0.0905493621507988   14.3167132645680866
   Li   C    O    F 
    16     4    12     8
Selective dynamics
Direct
  0.7141282613695594  0.7094261525433296  0.1345080732934036   T   T   T
  0.2141751938529595  0.7088572157481252  0.1344554224770107   T   T   T
  0.0165330208391907  0.3122276908519837  0.6725578551396865   T   T   T
  0.5163926578955440  0.3117012692784655  0.6726501458926890   T   T   T
  0.4813511847717464  0.2280407190601395  0.0698214635365133   T   T   T
  0.9812711565667840  0.2276866718104458  0.0697870785429799   T   T   T
  0.3527339851973110  0.9389821114894161  0.5680819840598943   T   T   T
  0.8528177578792295  0.9393477585944510  0.5681790665357696   T   T   T
  0.9834669791608093  0.6877723091480163  0.3274421448603135   T   T   T
  0.4836073421044560  0.6882987307215345  0.3273498541073110   T   T   T
  0.2858717386304477  0.2905738474566633  0.8654919267065964   T   T   T
  0.7858248061470405  0.2911427842518748  0.8655445775229893   T   T   T
  0.1471822421207705  0.0606522414055490  0.4318209334642304   T   T   T
  0.6472660148026890  0.0610178885105839  0.4319180159401057   T   T   T
  0.0187288434332160  0.7723133281895542  0.9302129214570201   T   T   T
  0.5186488152282536  0.7719592809398605  0.9301785364634867   T   T   T
  0.3116022219042023  0.8786888720794863  0.7594930926865757   T   T   T
  0.8116895505862658  0.8792774377196082  0.7595872660169718   T   T   T
  0.1883104494137342  0.1207225622803918  0.2404127339830282   T   T   T
  0.6883977780957977  0.1213111279205137  0.2405069073134243   T   T   T
  0.8005398287751859  0.7654574657642286  0.8474085039302750   T   T   T
  0.3005090604614935  0.7650051950006400  0.8472844174087513   T   T   T
  0.0884494626186978  0.2719832076984545  0.3087947932541226   T   T   T
  0.5886752528941415  0.2724191998445562  0.3089189381544202   T   T   T
  0.4113247471058585  0.7275808001554438  0.6910810618455798   T   T   T
  0.9115505373813022  0.7280167923015455  0.6912052067458703   T   T   T
  0.6994909395385065  0.2349948049993600  0.1527155825912487   T   T   T
  0.1994601712248141  0.2345425342357714  0.1525914960697250   T   T   T
  0.7252607723490172  0.1601594322378759  0.7444186263166301   T   T   T
  0.2252080392323563  0.1595090883072814  0.7443740411298378   T   T   T
  0.2747392276509828  0.8398405677621241  0.2555813736833699   T   T   T
  0.7747919607676508  0.8404909116927186  0.2556259588701622   T   T   T
  0.6006943289481086  0.1852521597301333  0.5537364522285841   T   T   T
  0.1007235352086937  0.1857716974284358  0.5535847664649438   T   T   T
  0.4888543820821312  0.7381635674066089  0.0621343757291086   T   T   T
  0.9887692117632056  0.7378617017480096  0.0621428217908715   T   T   T
  0.5111456179178688  0.2618364325933911  0.9378656242708914   T   T   T
  0.0112307882367944  0.2621382982519904  0.9378571782091285   T   T   T
  0.3993056710518914  0.8147478402698667  0.4462635477714159   T   T   T
  0.8992764647913063  0.8142283025715642  0.4464152335350562   T   T   T
 
  0.00000000E+00  0.00000000E+00  0.00000000E+00
  0.00000000E+00  0.00000000E+00  0.00000000E+00
  0.00000000E+00  0.00000000E+00  0.00000000E+00
  0.00000000E+00  0.00000000E+00  0.00000000E+00
  0.00000000E+00  0.00000000E+00  0.00000000E+00
  0.00000000E+00  0.00000000E+00  0.00000000E+00
  0.00000000E+00  0.00000000E+00  0.00000000E+00
  0.00000000E+00  0.00000000E+00  0.00000000E+00
  0.00000000E+00  0.00000000E+00  0.00000000E+00
  0.00000000E+00  0.00000000E+00  0.00000000E+00
  0.00000000E+00  0.00000000E+00  0.00000000E+00
  0.00000000E+00  0.00000000E+00  0.00000000E+00
  0.00000000E+00  0.00000000E+00  0.00000000E+00
  0.00000000E+00  0.00000000E+00  0.00000000E+00
  0.00000000E+00  0.00000000E+00  0.00000000E+00
  0.00000000E+00  0.00000000E+00  0.00000000E+00
  0.00000000E+00  0.00000000E+00  0.00000000E+00
  0.00000000E+00  0.00000000E+00  0.00000000E+00
  0.00000000E+00  0.00000000E+00  0.00000000E+00
  0.00000000E+00  0.00000000E+00  0.00000000E+00
  0.00000000E+00  0.00000000E+00  0.00000000E+00
  0.00000000E+00  0.00000000E+00  0.00000000E+00
  0.00000000E+00  0.00000000E+00  0.00000000E+00
  0.00000000E+00  0.00000000E+00  0.00000000E+00
  0.00000000E+00  0.00000000E+00  0.00000000E+00
  0.00000000E+00  0.00000000E+00  0.00000000E+00
  0.00000000E+00  0.00000000E+00  0.00000000E+00
  0.00000000E+00  0.00000000E+00  0.00000000E+00
  0.00000000E+00  0.00000000E+00  0.00000000E+00
  0.00000000E+00  0.00000000E+00  0.00000000E+00
  0.00000000E+00  0.00000000E+00  0.00000000E+00
  0.00000000E+00  0.00000000E+00  0.00000000E+00
  0.00000000E+00  0.00000000E+00  0.00000000E+00
  0.00000000E+00  0.00000000E+00  0.00000000E+00
  0.00000000E+00  0.00000000E+00  0.00000000E+00
  0.00000000E+00  0.00000000E+00  0.00000000E+00
  0.00000000E+00  0.00000000E+00  0.00000000E+00
  0.00000000E+00  0.00000000E+00  0.00000000E+00
  0.00000000E+00  0.00000000E+00  0.00000000E+00
  0.00000000E+00  0.00000000E+00  0.00000000E+00
