Primitive Cell                          
   1.00000000000000     
     3.8312202075781050    0.0000000000000000    0.0000000000000000
     0.0000000000000000    6.3889362018010925    0.1354633129098325
     0.0000000000000000    6.4578218531883183    6.9253869778545409
   Li   C    O    F 
     8     2     6     4
Selective dynamics
Direct
  0.2206692029106521  0.1496070723393138  0.6505007057812869   T   T   T
  0.2614601289993558  0.5201638718556358  0.8798952871445701   T   T   T
  0.2746716201671262  0.3351296617516055  0.2481328067824284   T   T   T
  0.2807593656786208  0.9072260978367641  0.0885463962360985   T   T   T
  0.7385398710006443  0.5201638718556358  0.3798952871445702   T   T   T
  0.7793307970893478  0.1496070723393138  0.1505007057812870   T   T   T
  0.7192406343213791  0.9072260978367641  0.5885463962360985   T   T   T
  0.7253283798328737  0.3351296617516055  0.7481328067824283   T   T   T
  0.1128169210853657  0.6873909911426817  0.5700567398528533   T   T   T
  0.8871830789146342  0.6873909911426817  0.0700567398528533   T   T   T
  0.1655960715006362  0.7421256140374847  0.9746517089066238   T   T   T
  0.8344039284993638  0.7421256140374847  0.4746517089066239   T   T   T
  0.7598543450698426  0.8889604393249881  0.0598398563823160   T   T   T
  0.2401456549301645  0.8889604393249881  0.5598398563823160   T   T   T
  0.2422520628706482  0.4243536318973917  0.6966647954003398   T   T   T
  0.7577479371293518  0.4243536318973917  0.1966647954003398   T   T   T
  0.7231693123699077  0.1452375888298000  0.6435138959247454   T   T   T
  0.2768306876300923  0.1452375888298000  0.1435138959247453   T   T   T
  0.7538497586537992  0.5104281115299599  0.8632708750678560   T   T   T
  0.2461502413462007  0.5104281115299599  0.3632708750678562   T   T   T
 
  0.00000000E+00  0.00000000E+00  0.00000000E+00
  0.00000000E+00  0.00000000E+00  0.00000000E+00
  0.00000000E+00  0.00000000E+00  0.00000000E+00
  0.00000000E+00  0.00000000E+00  0.00000000E+00
  0.00000000E+00  0.00000000E+00  0.00000000E+00
  0.00000000E+00  0.00000000E+00  0.00000000E+00
  0.00000000E+00  0.00000000E+00  0.00000000E+00
  0.00000000E+00  0.00000000E+00  0.00000000E+00
  0.00000000E+00  0.00000000E+00  0.00000000E+00
  0.00000000E+00  0.00000000E+00  0.00000000E+00
  0.00000000E+00  0.00000000E+00  0.00000000E+00
  0.00000000E+00  0.00000000E+00  0.00000000E+00
  0.00000000E+00  0.00000000E+00  0.00000000E+00
  0.00000000E+00  0.00000000E+00  0.00000000E+00
  0.00000000E+00  0.00000000E+00  0.00000000E+00
  0.00000000E+00  0.00000000E+00  0.00000000E+00
  0.00000000E+00  0.00000000E+00  0.00000000E+00
  0.00000000E+00  0.00000000E+00  0.00000000E+00
  0.00000000E+00  0.00000000E+00  0.00000000E+00
  0.00000000E+00  0.00000000E+00  0.00000000E+00
