Primitive Cell                          
   1.00000000000000     
     5.2915761960105883    0.0000000000000000    0.0000000000000000
     0.0000000000000000    5.0218335859030088    0.0053517064317330
     0.0000000000000000    2.4925511411986725    4.3595834809698530
   Li   C    O    F 
     4     1     3     2
Selective dynamics
Direct
  0.5000000000000000  0.6588928108414080  0.1955824407443956   T   T   T
  0.7316659434633266  0.9900174087886455  0.5690468987121733   T   T   T
  0.2683340565366734  0.9900174087886455  0.5690468987121733   T   T   T
  0.5000000000000000  0.3634831329330126  0.9001742223221854   T   T   T
  0.0000000000000000  0.4996488117633220  0.0594144587428644   T   T   T
  0.7847194714774375  0.3712189193754298  0.1878438551576167   T   T   T
  0.2152805285225625  0.3712189193754298  0.1878438551576167   T   T   T
  0.0000000000000000  0.7541986178292817  0.8048709688124660   T   T   T
  0.5000000000000000  0.7296947155328226  0.5177601019457327   T   T   T
  0.5000000000000000  0.0413143199984418  0.8293450642897469   T   T   T
 
  0.00000000E+00  0.00000000E+00  0.00000000E+00
  0.00000000E+00  0.00000000E+00  0.00000000E+00
  0.00000000E+00  0.00000000E+00  0.00000000E+00
  0.00000000E+00  0.00000000E+00  0.00000000E+00
  0.00000000E+00  0.00000000E+00  0.00000000E+00
  0.00000000E+00  0.00000000E+00  0.00000000E+00
  0.00000000E+00  0.00000000E+00  0.00000000E+00
  0.00000000E+00  0.00000000E+00  0.00000000E+00
  0.00000000E+00  0.00000000E+00  0.00000000E+00
  0.00000000E+00  0.00000000E+00  0.00000000E+00
