Primitive Cell                          
   1.00000000000000     
     2.5320384359714354   -6.5218956510157824    0.0000000000000000
     2.5320384359714354    6.5218956510157824    0.0000000000000000
     0.0000000000000000    0.0000000000000000    6.2878866571456662
   Li   C    O    F 
     8     2     6     4
Selective dynamics
Direct
  0.3594913637433686  0.1286009278369487 -0.0000000000000000   T   T   T
  0.2704331153814326  0.0389841827267796  0.5000000000000000   T   T   T
  0.0389841827267796  0.2704331153814326  0.5000000000000000   T   T   T
  0.1286009278369487  0.3594913637433686 -0.0000000000000000   T   T   T
  0.8075800834984392  0.4584931622829576  0.7421390623216543   T   T   T
  0.8075800834984392  0.4584931622829576  0.2578609376783457   T   T   T
  0.4584931622829576  0.8075800834984392  0.7421390623216543   T   T   T
  0.4584931622829576  0.8075800834984392  0.2578609376783457   T   T   T
  0.6425733852585603  0.6425733852585603  0.5000000000000000   T   T   T
  0.7631487464484167  0.7631487464484167 -0.0000000000000000   T   T   T
  0.3891898143502289  0.3891898143502289  0.5000000000000000   T   T   T
  0.0162519384190265  0.0162519384190265 -0.0000000000000000   T   T   T
  0.8584161679613235  0.6840203945019424  0.5000000000000000   T   T   T
  0.7199344865935434  0.5465983278707806 -0.0000000000000000   T   T   T
  0.6840203945019424  0.8584161679613235  0.5000000000000000   T   T   T
  0.5465983278707806  0.7199344865935434 -0.0000000000000000   T   T   T
  0.4518428454356594  0.0661787705238909  0.7436158497212362   T   T   T
  0.4518428454356594  0.0661787705238909  0.2563841502787638   T   T   T
  0.0661787705238909  0.4518428454356594  0.2563841502787638   T   T   T
  0.0661787705238909  0.4518428454356594  0.7436158497212362   T   T   T
 
  0.00000000E+00  0.00000000E+00  0.00000000E+00
  0.00000000E+00  0.00000000E+00  0.00000000E+00
  0.00000000E+00  0.00000000E+00  0.00000000E+00
  0.00000000E+00  0.00000000E+00  0.00000000E+00
  0.00000000E+00  0.00000000E+00  0.00000000E+00
  0.00000000E+00  0.00000000E+00  0.00000000E+00
  0.00000000E+00  0.00000000E+00  0.00000000E+00
  0.00000000E+00  0.00000000E+00  0.00000000E+00
  0.00000000E+00  0.00000000E+00  0.00000000E+00
  0.00000000E+00  0.00000000E+00  0.00000000E+00
  0.00000000E+00  0.00000000E+00  0.00000000E+00
  0.00000000E+00  0.00000000E+00  0.00000000E+00
  0.00000000E+00  0.00000000E+00  0.00000000E+00
  0.00000000E+00  0.00000000E+00  0.00000000E+00
  0.00000000E+00  0.00000000E+00  0.00000000E+00
  0.00000000E+00  0.00000000E+00  0.00000000E+00
  0.00000000E+00  0.00000000E+00  0.00000000E+00
  0.00000000E+00  0.00000000E+00  0.00000000E+00
  0.00000000E+00  0.00000000E+00  0.00000000E+00
  0.00000000E+00  0.00000000E+00  0.00000000E+00
