Primitive Cell                          
   1.00000000000000     
     3.0982972816471142    0.2996407880660017    0.0433673019171596
    -0.5515078324446394    3.8463571193318997   -0.4841146403050826
    -0.9532428100245016   -2.1486994500972121   14.5915775590565797
   Li   C    O    F 
     8     2     6     4
Selective dynamics
Direct
  0.7268688669910262  0.6122310810049356  0.3517532277843216   T   T   T
  0.7151271040726286  0.2171153711463774  0.9567100953843664   T   T   T
  0.2319095400620412  0.2025255962701422  0.4489808672064015   T   T   T
  0.9918228873691675  0.7030964607760097  0.8399595807808211   T   T   T
  0.2848728959273643  0.7828846288536226  0.0432899046156336   T   T   T
  0.2731311330089738  0.3877689189950644  0.6482467722156855   T   T   T
  0.0081771126308325  0.2969035392239903  0.1600404192191789   T   T   T
  0.7680904599379588  0.7974744037298578  0.5510191327935985   T   T   T
  0.5241539148612020  0.0712352056239567  0.7430284921058359   T   T   T
  0.4758460851387980  0.9287647943760433  0.2569715078941641   T   T   T
  0.3370134361483821  0.8832215480669561  0.6624432265169062   T   T   T
  0.5133467890329726  0.0272769652785954  0.1803374555327508   T   T   T
  0.4866532109670274  0.9727230347214046  0.8196625444672563   T   T   T
  0.6629865638516179  0.1167784519330439  0.3375567734830938   T   T   T
  0.7451579549745873  0.3560572171574492  0.7446072901742014   T   T   T
  0.2548420450254127  0.6439427828425508  0.2553927098257986   T   T   T
  0.2462652959422940  0.2904979106447740  0.0391705332305605   T   T   T
  0.2244924171296461  0.7061596538543000  0.4536132460809910   T   T   T
  0.7755075828703468  0.2938403461457000  0.5463867539190090   T   T   T
  0.7537347040577060  0.7095020893552260  0.9608294667694395   T   T   T
 
  0.00000000E+00  0.00000000E+00  0.00000000E+00
  0.00000000E+00  0.00000000E+00  0.00000000E+00
  0.00000000E+00  0.00000000E+00  0.00000000E+00
  0.00000000E+00  0.00000000E+00  0.00000000E+00
  0.00000000E+00  0.00000000E+00  0.00000000E+00
  0.00000000E+00  0.00000000E+00  0.00000000E+00
  0.00000000E+00  0.00000000E+00  0.00000000E+00
  0.00000000E+00  0.00000000E+00  0.00000000E+00
  0.00000000E+00  0.00000000E+00  0.00000000E+00
  0.00000000E+00  0.00000000E+00  0.00000000E+00
  0.00000000E+00  0.00000000E+00  0.00000000E+00
  0.00000000E+00  0.00000000E+00  0.00000000E+00
  0.00000000E+00  0.00000000E+00  0.00000000E+00
  0.00000000E+00  0.00000000E+00  0.00000000E+00
  0.00000000E+00  0.00000000E+00  0.00000000E+00
  0.00000000E+00  0.00000000E+00  0.00000000E+00
  0.00000000E+00  0.00000000E+00  0.00000000E+00
  0.00000000E+00  0.00000000E+00  0.00000000E+00
  0.00000000E+00  0.00000000E+00  0.00000000E+00
  0.00000000E+00  0.00000000E+00  0.00000000E+00
