Primitive Cell                          
   1.00000000000000     
     5.0798750381007913    0.0000000000000000    0.0000000000000000
     0.0000000000000000    6.2602758958815476   -0.0062258268808607
     0.0000000000000000    0.2266789045291095   13.0294984950693795
   Li   C    O    F 
    16     4    12     8
Selective dynamics
Direct
  0.3856493551990354  0.9926239999880337  0.9251026845811410   T   T   T
  0.8862223474842850  0.0094280811933203  0.4249979203496608   T   T   T
  0.7446911653072661  0.5070876320466837  0.0747539335566714   T   T   T
  0.8903568385696730  0.4948968673392642  0.4247040289112718   T   T   T
  0.8649952431485346  0.7632735560290413  0.8652596001942925   T   T   T
  0.7663484221952857  0.2635161653944706  0.8646547485820690   T   T   T
  0.8687060208111888  0.7440182112697329  0.6343065136751704   T   T   T
  0.7741792685876874  0.2439703050074016  0.6359783179966385   T   T   T
  0.3903568385696659  0.5051031326607358  0.5752959710887282   T   T   T
  0.2446911653072661  0.4929123679533234  0.9252460664433286   T   T   T
  0.3862223474842850  0.9905719188066797  0.5750020796503392   T   T   T
  0.8856493551990354  0.0073760000119663  0.0748973154188590   T   T   T
  0.2741792685876874  0.7560296949925984  0.3640216820033615   T   T   T
  0.3687060208111888  0.2559817887302671  0.3656934863248296   T   T   T
  0.2663484221952857  0.7364838346055294  0.1353452514179310   T   T   T
  0.3649952431485346  0.2367264439709587  0.1347403998057075   T   T   T
  0.7533812495109871  0.7498481745269103  0.2490768509434815   T   T   T
  0.8808174497739927  0.2502679319091996  0.2503511043873843   T   T   T
  0.3808174497739927  0.7497320680908004  0.7496488956126157   T   T   T
  0.2533812495109871  0.2501518254730897  0.7509231490565185   T   T   T
  0.8800652616497260  0.7382563736109446  0.1617827133697531   T   T   T
  0.7485999461426474  0.2381876247058798  0.1644948538298010   T   T   T
  0.8859161140491949  0.7566524742648824  0.3348149468894874   T   T   T
  0.7549302656815939  0.2564076584030701  0.3383138034879707   T   T   T
  0.2549302656815939  0.7435923415969370  0.6616861965120293   T   T   T
  0.3859161140491949  0.2433475257351176  0.6651850531105126   T   T   T
  0.2485999461426474  0.7618123752941202  0.8355051461701990   T   T   T
  0.3800652616497260  0.2617436263890554  0.8382172866302469   T   T   T
  0.0009504434488576  0.2464877520853079  0.7501502887908984   T   T   T
  0.5009504434488576  0.7535122479146921  0.2498497112091016   T   T   T
  0.6332500875919180  0.7448625463738097  0.7508941092003667   T   T   T
  0.1332500875919180  0.2551374536261903  0.2491058907996333   T   T   T
  0.7608141150360055  0.9924910320035565  0.5573086521015327   T   T   T
  0.7632689885124009  0.5012899408084905  0.5570953994876149   T   T   T
  0.7550661895893640  0.9999427795298814  0.9429838326292881   T   T   T
  0.8761142188294713  0.4998221968890348  0.9430108722041624   T   T   T
  0.3761142188294713  0.5001778031109652  0.0569891277958376   T   T   T
  0.2550661895893640  0.0000572204701186  0.0570161673707119   T   T   T
  0.2632689885124009  0.4987100591915095  0.4429046005123851   T   T   T
  0.2608141150360055  0.0075089679964435  0.4426913478984673   T   T   T
 
  0.00000000E+00  0.00000000E+00  0.00000000E+00
  0.00000000E+00  0.00000000E+00  0.00000000E+00
  0.00000000E+00  0.00000000E+00  0.00000000E+00
  0.00000000E+00  0.00000000E+00  0.00000000E+00
  0.00000000E+00  0.00000000E+00  0.00000000E+00
  0.00000000E+00  0.00000000E+00  0.00000000E+00
  0.00000000E+00  0.00000000E+00  0.00000000E+00
  0.00000000E+00  0.00000000E+00  0.00000000E+00
  0.00000000E+00  0.00000000E+00  0.00000000E+00
  0.00000000E+00  0.00000000E+00  0.00000000E+00
  0.00000000E+00  0.00000000E+00  0.00000000E+00
  0.00000000E+00  0.00000000E+00  0.00000000E+00
  0.00000000E+00  0.00000000E+00  0.00000000E+00
  0.00000000E+00  0.00000000E+00  0.00000000E+00
  0.00000000E+00  0.00000000E+00  0.00000000E+00
  0.00000000E+00  0.00000000E+00  0.00000000E+00
  0.00000000E+00  0.00000000E+00  0.00000000E+00
  0.00000000E+00  0.00000000E+00  0.00000000E+00
  0.00000000E+00  0.00000000E+00  0.00000000E+00
  0.00000000E+00  0.00000000E+00  0.00000000E+00
  0.00000000E+00  0.00000000E+00  0.00000000E+00
  0.00000000E+00  0.00000000E+00  0.00000000E+00
  0.00000000E+00  0.00000000E+00  0.00000000E+00
  0.00000000E+00  0.00000000E+00  0.00000000E+00
  0.00000000E+00  0.00000000E+00  0.00000000E+00
  0.00000000E+00  0.00000000E+00  0.00000000E+00
  0.00000000E+00  0.00000000E+00  0.00000000E+00
  0.00000000E+00  0.00000000E+00  0.00000000E+00
  0.00000000E+00  0.00000000E+00  0.00000000E+00
  0.00000000E+00  0.00000000E+00  0.00000000E+00
  0.00000000E+00  0.00000000E+00  0.00000000E+00
  0.00000000E+00  0.00000000E+00  0.00000000E+00
  0.00000000E+00  0.00000000E+00  0.00000000E+00
  0.00000000E+00  0.00000000E+00  0.00000000E+00
  0.00000000E+00  0.00000000E+00  0.00000000E+00
  0.00000000E+00  0.00000000E+00  0.00000000E+00
  0.00000000E+00  0.00000000E+00  0.00000000E+00
  0.00000000E+00  0.00000000E+00  0.00000000E+00
  0.00000000E+00  0.00000000E+00  0.00000000E+00
  0.00000000E+00  0.00000000E+00  0.00000000E+00
