Primitive Cell                          
   1.00000000000000     
    10.5998710069337498    0.0000000000000000    0.0000000000000000
     0.0000000000000000    5.0496513564790124   -0.0000128406097528
     0.0000000000000000    0.0004750810907778    8.7443947718200263
   Li   C    O    F 
    16     4    12     8
Selective dynamics
Direct
  0.8675518823791393  0.5104836380253417  0.0520424599817630   T   T   T
  0.8660225029838458  0.1157199643045317  0.5522531803614399   T   T   T
  0.7452208147549442  0.1370718698741200  0.9015545668624867   T   T   T
  0.7500913338578314  0.6376769892211485  0.4048808372328310   T   T   T
  0.2500277302356722  0.6376518554135657  0.6994263419030560   T   T   T
  0.2546399846445055  0.1371360664367884  0.2027484592959041   T   T   T
  0.3662402695557674  0.1164875069473226  0.5520480700918426   T   T   T
  0.3644655553100904  0.6271448929970234  0.0522500017236140   T   T   T
  0.2547791852450558  0.1370718698741200  0.9015545668624867   T   T   T
  0.2499086661421686  0.6376769892211485  0.4048808372328310   T   T   T
  0.1339774970161542  0.1157199643045317  0.5522531803614399   T   T   T
  0.1324481176208607  0.5104836380253417  0.0520424599817630   T   T   T
  0.7453600153554945  0.1371360664367884  0.2027484592959041   T   T   T
  0.7499722697643278  0.6376518554135657  0.6994263419030560   T   T   T
  0.6337597304442326  0.1164875069473226  0.5520480700918426   T   T   T
  0.6355344446899096  0.6271448929970234  0.0522500017236140   T   T   T
  0.5000000000000000  0.1374563711015711  0.0523046051454941   T   T   T
  0.5000000000000000  0.6267094531218405  0.5520088557726908   T   T   T
  0.0000000000000000  0.0007792135265206  0.0519995466998253   T   T   T
  0.0000000000000000  0.6261904097197188  0.5523080992853195   T   T   T
  0.3926811360005189  0.0083449381927778  0.0522377928826003   T   T   T
  0.3925344756469968  0.4986812930363342  0.5520660084378122   T   T   T
  0.8933834054028011  0.1301846420160402  0.0520541940545769   T   T   T
  0.8925176673930579  0.4980466371022771  0.5522476036517290   T   T   T
  0.5000000000000000  0.3910584004149982  0.0524342430684683   T   T   T
  0.5000000000000000  0.8808134679088937  0.5518995142136376   T   T   T
  0.6073188639994811  0.0083449381927778  0.0522377928826003   T   T   T
  0.6074655243530032  0.4986812930363342  0.5520660084378122   T   T   T
  0.1074823326069421  0.4980466371022771  0.5522476036517290   T   T   T
  0.0000000000000000  0.7467456892834718  0.0518942733864804   T   T   T
  0.0000000000000000  0.8801703467975486  0.5524239271091247   T   T   T
  0.1066165945971989  0.1301846420160402  0.0520541940545769   T   T   T
  0.2535884051311896  0.5134929669530806  0.8945833080616907   T   T   T
  0.2502793409279747  0.0120812178886993  0.3974437804444833   T   T   T
  0.2504777268796090  0.0120557666158305  0.7068600461983792   T   T   T
  0.2533908801638631  0.5135348904151087  0.2097325044761931   T   T   T
  0.7464115948688104  0.5134929669530806  0.8945833080616907   T   T   T
  0.7497206590720253  0.0120812178886993  0.3974437804444833   T   T   T
  0.7495222731203910  0.0120557666158305  0.7068600461983792   T   T   T
  0.7466091198361369  0.5135348904151087  0.2097325044761931   T   T   T
 
  0.00000000E+00  0.00000000E+00  0.00000000E+00
  0.00000000E+00  0.00000000E+00  0.00000000E+00
  0.00000000E+00  0.00000000E+00  0.00000000E+00
  0.00000000E+00  0.00000000E+00  0.00000000E+00
  0.00000000E+00  0.00000000E+00  0.00000000E+00
  0.00000000E+00  0.00000000E+00  0.00000000E+00
  0.00000000E+00  0.00000000E+00  0.00000000E+00
  0.00000000E+00  0.00000000E+00  0.00000000E+00
  0.00000000E+00  0.00000000E+00  0.00000000E+00
  0.00000000E+00  0.00000000E+00  0.00000000E+00
  0.00000000E+00  0.00000000E+00  0.00000000E+00
  0.00000000E+00  0.00000000E+00  0.00000000E+00
  0.00000000E+00  0.00000000E+00  0.00000000E+00
  0.00000000E+00  0.00000000E+00  0.00000000E+00
  0.00000000E+00  0.00000000E+00  0.00000000E+00
  0.00000000E+00  0.00000000E+00  0.00000000E+00
  0.00000000E+00  0.00000000E+00  0.00000000E+00
  0.00000000E+00  0.00000000E+00  0.00000000E+00
  0.00000000E+00  0.00000000E+00  0.00000000E+00
  0.00000000E+00  0.00000000E+00  0.00000000E+00
  0.00000000E+00  0.00000000E+00  0.00000000E+00
  0.00000000E+00  0.00000000E+00  0.00000000E+00
  0.00000000E+00  0.00000000E+00  0.00000000E+00
  0.00000000E+00  0.00000000E+00  0.00000000E+00
  0.00000000E+00  0.00000000E+00  0.00000000E+00
  0.00000000E+00  0.00000000E+00  0.00000000E+00
  0.00000000E+00  0.00000000E+00  0.00000000E+00
  0.00000000E+00  0.00000000E+00  0.00000000E+00
  0.00000000E+00  0.00000000E+00  0.00000000E+00
  0.00000000E+00  0.00000000E+00  0.00000000E+00
  0.00000000E+00  0.00000000E+00  0.00000000E+00
  0.00000000E+00  0.00000000E+00  0.00000000E+00
  0.00000000E+00  0.00000000E+00  0.00000000E+00
  0.00000000E+00  0.00000000E+00  0.00000000E+00
  0.00000000E+00  0.00000000E+00  0.00000000E+00
  0.00000000E+00  0.00000000E+00  0.00000000E+00
  0.00000000E+00  0.00000000E+00  0.00000000E+00
  0.00000000E+00  0.00000000E+00  0.00000000E+00
  0.00000000E+00  0.00000000E+00  0.00000000E+00
  0.00000000E+00  0.00000000E+00  0.00000000E+00
