Primitive Cell                          
   1.00000000000000     
     5.0220025977097453   -0.0011913259289349    0.0000252083763760
    -2.5054711741236386    4.3613753365139498   -0.0000667608535039
     0.0000268929763723   -0.0000671582252520    5.2973762795958201
   Li   C    O    F 
     4     1     3     2
Selective dynamics
Direct
  0.5126013916894365  0.9028501740809176  0.3228697004726158   T   T   T
  0.1823697048633477  0.1994911196881120  0.5546862860708401   T   T   T
  0.5126036283373168  0.9028639833795609  0.7863432798700103   T   T   T
  0.8856554960590088  0.6061237667019270  0.5545288402127966   T   T   T
  0.0227232876129904  0.9028992845454837  0.0546158028735277   T   T   T
  0.8942918461901712  0.9028212190330507  0.2698514415719515   T   T   T
  0.8943252427492894  0.9029007560859839  0.8393895781639529   T   T   T
  0.2779992136714924  0.9030022693241193  0.0546125940945359   T   T   T
  0.5650570085165185  0.2137801138692197  0.5546260166003663   T   T   T
  0.2541788152454671  0.5921118824590366  0.5546202314708353   T   T   T
 
  0.00000000E+00  0.00000000E+00  0.00000000E+00
  0.00000000E+00  0.00000000E+00  0.00000000E+00
  0.00000000E+00  0.00000000E+00  0.00000000E+00
  0.00000000E+00  0.00000000E+00  0.00000000E+00
  0.00000000E+00  0.00000000E+00  0.00000000E+00
  0.00000000E+00  0.00000000E+00  0.00000000E+00
  0.00000000E+00  0.00000000E+00  0.00000000E+00
  0.00000000E+00  0.00000000E+00  0.00000000E+00
  0.00000000E+00  0.00000000E+00  0.00000000E+00
  0.00000000E+00  0.00000000E+00  0.00000000E+00
