Primitive Cell                          
   1.00000000000000     
     2.5459012416562352    6.5170958887529160    0.0000000000000000
    -2.5459012416562352    6.5170958887529160    0.0000000000000000
     0.0000000000000000    0.0000000000000000    6.2288335120677392
   Li   C    O    F 
     8     2     6     4
Selective dynamics
Direct
  0.3399823818454948  0.4305158473821251  0.8173108792848041   T   T   T
  0.4305158473821251  0.3399823818454948  0.3173108792848041   T   T   T
  0.1078207847845931  0.2423484399091578  0.0559846758367399   T   T   T
  0.5694841526178749  0.6600176181545052  0.8173108792848041   T   T   T
  0.7576515600908422  0.8921792152154069  0.0559846758367399   T   T   T
  0.8921792152154069  0.7576515600908422  0.5559846758367399   T   T   T
  0.6600176181545052  0.5694841526178749  0.3173108792848041   T   T   T
  0.2423484399091578  0.1078207847845931  0.5559846758367399   T   T   T
  0.0589798981524865  0.9410201018475135  0.3142628705048907   T   T   T
  0.9410201018475135  0.0589798981524865  0.8142628705048907   T   T   T
  0.3107274986158757  0.6892725013841243  0.3049213693317157   T   T   T
  0.6892725013841243  0.3107274986158757  0.8049213693317157   T   T   T
  0.8432436274387527  0.9829868824549592  0.3199685584120715   T   T   T
  0.9829868824549592  0.8432436274387527  0.8199685584120715   T   T   T
  0.0170131175450408  0.1567563725612473  0.3199685584120715   T   T   T
  0.1567563725612473  0.0170131175450408  0.8199685584120715   T   T   T
  0.3707327217153207  0.2431814032879771  0.0569030771170773   T   T   T
  0.2431814032879771  0.3707327217153207  0.5569030771170773   T   T   T
  0.6292672782846793  0.7568185967120229  0.5569030771170773   T   T   T
  0.7568185967120229  0.6292672782846793  0.0569030771170773   T   T   T
 
  0.00000000E+00  0.00000000E+00  0.00000000E+00
  0.00000000E+00  0.00000000E+00  0.00000000E+00
  0.00000000E+00  0.00000000E+00  0.00000000E+00
  0.00000000E+00  0.00000000E+00  0.00000000E+00
  0.00000000E+00  0.00000000E+00  0.00000000E+00
  0.00000000E+00  0.00000000E+00  0.00000000E+00
  0.00000000E+00  0.00000000E+00  0.00000000E+00
  0.00000000E+00  0.00000000E+00  0.00000000E+00
  0.00000000E+00  0.00000000E+00  0.00000000E+00
  0.00000000E+00  0.00000000E+00  0.00000000E+00
  0.00000000E+00  0.00000000E+00  0.00000000E+00
  0.00000000E+00  0.00000000E+00  0.00000000E+00
  0.00000000E+00  0.00000000E+00  0.00000000E+00
  0.00000000E+00  0.00000000E+00  0.00000000E+00
  0.00000000E+00  0.00000000E+00  0.00000000E+00
  0.00000000E+00  0.00000000E+00  0.00000000E+00
  0.00000000E+00  0.00000000E+00  0.00000000E+00
  0.00000000E+00  0.00000000E+00  0.00000000E+00
  0.00000000E+00  0.00000000E+00  0.00000000E+00
  0.00000000E+00  0.00000000E+00  0.00000000E+00
