Primitive Cell                          
   1.00000000000000     
     6.4295403406794858    0.0000000000000000    0.0000000000000000
     0.0000000000000000    5.0583058424269876   -0.0051604017999629
     0.0000000000000000    2.4528164755553137    6.5346345748690942
   Li   C    O    F 
     8     2     6     4
Selective dynamics
Direct
  0.7512782013470201  0.3181836523328911  0.9225963367050127   T   T   T
  0.2548860297467783  0.1015720290969853  0.3844893500367021   T   T   T
  0.2487217986529799  0.3181836523328911  0.9225963367050127   T   T   T
  0.7451139702532217  0.1015720290969853  0.3844893500367021   T   T   T
  0.0000000000000000  0.4263489308231456  0.5023346611414254   T   T   T
  0.5000000000000000  0.5692232349435287  0.4940850791453073   T   T   T
  0.0000000000000000  0.7751608019293244  0.8017495709817339   T   T   T
  0.5000000000000000  0.7690523808375787  0.8097614152617041   T   T   T
  0.2498608045213970  0.7290525833956281  0.1547676115738241   T   T   T
  0.7501391954785959  0.7290525833956281  0.1547676115738241   T   T   T
  0.2461115220922636  0.9825276332982540  0.1534078506051770   T   T   T
  0.7538884779077364  0.9825276332982540  0.1534078506051770   T   T   T
  0.2556089312652503  0.5167241509939728  0.3291112980728030   T   T   T
  0.7443910687347497  0.5167241509939728  0.3291112980728030   T   T   T
  0.2496612307506112  0.6803345359840236  0.9824978432874332   T   T   T
  0.7503387692493888  0.6803345359840236  0.9824978432874332   T   T   T
  0.0000000000000000  0.0355565563388538  0.5384615937511299   T   T   T
  0.5000000000000000  0.3867474291467232  0.7744082108091277   T   T   T
  0.5000000000000000  0.9390103074955007  0.5284990316725100   T   T   T
  0.0000000000000000  0.4182623936373986  0.7664020829107656   T   T   T
 
  0.00000000E+00  0.00000000E+00  0.00000000E+00
  0.00000000E+00  0.00000000E+00  0.00000000E+00
  0.00000000E+00  0.00000000E+00  0.00000000E+00
  0.00000000E+00  0.00000000E+00  0.00000000E+00
  0.00000000E+00  0.00000000E+00  0.00000000E+00
  0.00000000E+00  0.00000000E+00  0.00000000E+00
  0.00000000E+00  0.00000000E+00  0.00000000E+00
  0.00000000E+00  0.00000000E+00  0.00000000E+00
  0.00000000E+00  0.00000000E+00  0.00000000E+00
  0.00000000E+00  0.00000000E+00  0.00000000E+00
  0.00000000E+00  0.00000000E+00  0.00000000E+00
  0.00000000E+00  0.00000000E+00  0.00000000E+00
  0.00000000E+00  0.00000000E+00  0.00000000E+00
  0.00000000E+00  0.00000000E+00  0.00000000E+00
  0.00000000E+00  0.00000000E+00  0.00000000E+00
  0.00000000E+00  0.00000000E+00  0.00000000E+00
  0.00000000E+00  0.00000000E+00  0.00000000E+00
  0.00000000E+00  0.00000000E+00  0.00000000E+00
  0.00000000E+00  0.00000000E+00  0.00000000E+00
  0.00000000E+00  0.00000000E+00  0.00000000E+00
