Primitive Cell                          
   1.00000000000000     
     5.0272817543916029   -0.0122332474857636    0.2081439569602949
    -2.5106619128323833    7.2079385223807071    0.0488927842732376
    -0.3180512398787541   -1.6569573386394001    8.4439547246569564
   Li   C    O    F 
    12     3     9     6
Selective dynamics
Direct
  0.3290622045624829  0.8291933245057237  0.0570631277679325   T   T   T
  0.9841441181865207  0.1519111576483851  0.7221859803531530   T   T   T
  0.6175711000326771  0.6466620777498235  0.1791540308707766   T   T   T
  0.6059755335590609  0.3717017643980043  0.8394972022505911   T   T   T
  0.1582000708489204  0.6930569728341780  0.3772350944427529   T   T   T
  0.3575186707479787  0.1016685166911060  0.5036332394709859   T   T   T
  0.9334701519427639  0.2779136193304836  0.4018289107247313   T   T   T
  0.2100910898321118  0.5777749570414414  0.7239782815296678   T   T   T
  0.9966796012180694  0.3974363334081659  0.0508782501172291   T   T   T
  0.5624626397745160  0.5361659320261509  0.5134067219091349   T   T   T
  0.8064059916621531  0.7986769979320414  0.8463510626191493   T   T   T
  0.5266715156890882  0.2338637940127484  0.1923913217546698   T   T   T
  0.7477707491209884  0.9009969024804860  0.4443789449419597   T   T   T
  0.4059144412147830  0.9761862177655658  0.7841276789352492   T   T   T
  0.9439350681335839  0.0266505998031690  0.1292672045045151   T   T   T
  0.7982581205466772  0.7420501619251496  0.4034062234376279   T   T   T
  0.3452642019679502  0.1190437760995309  0.7482615969489999   T   T   T
  0.7402046796981168  0.8693179648028320  0.0773242213457692   T   T   T
  0.6620754757274696  0.9796203617404586  0.7857485353495548   T   T   T
  0.8886791686773705  0.1832233304968938  0.1684934413352437   T   T   T
  0.2061703037320228  0.8296880805835443  0.8193957095894788   T   T   T
  0.4931273862143470  0.9005548914697385  0.4404609108802759   T   T   T
  0.1979853045817563  0.0270693217730482  0.1418501813174018   T   T   T
  0.9556170712830721  0.0589612092048100  0.4868551581945511   T   T   T
  0.9977419936030145  0.3876720606637178  0.8292963584683548   T   T   T
  0.6247882218491370  0.4211581422181112  0.0653032246597860   T   T   T
  0.2282463290225607  0.6203255361586244  0.1632815620721360   T   T   T
  0.1728183427146064  0.5104143886969865  0.5004557466789592   T   T   T
  0.5747872941968453  0.3075555898244744  0.4144633108989311   T   T   T
  0.5832221146953174  0.5641786180560331  0.7376714919960747   T   T   T
 
  0.00000000E+00  0.00000000E+00  0.00000000E+00
  0.00000000E+00  0.00000000E+00  0.00000000E+00
  0.00000000E+00  0.00000000E+00  0.00000000E+00
  0.00000000E+00  0.00000000E+00  0.00000000E+00
  0.00000000E+00  0.00000000E+00  0.00000000E+00
  0.00000000E+00  0.00000000E+00  0.00000000E+00
  0.00000000E+00  0.00000000E+00  0.00000000E+00
  0.00000000E+00  0.00000000E+00  0.00000000E+00
  0.00000000E+00  0.00000000E+00  0.00000000E+00
  0.00000000E+00  0.00000000E+00  0.00000000E+00
  0.00000000E+00  0.00000000E+00  0.00000000E+00
  0.00000000E+00  0.00000000E+00  0.00000000E+00
  0.00000000E+00  0.00000000E+00  0.00000000E+00
  0.00000000E+00  0.00000000E+00  0.00000000E+00
  0.00000000E+00  0.00000000E+00  0.00000000E+00
  0.00000000E+00  0.00000000E+00  0.00000000E+00
  0.00000000E+00  0.00000000E+00  0.00000000E+00
  0.00000000E+00  0.00000000E+00  0.00000000E+00
  0.00000000E+00  0.00000000E+00  0.00000000E+00
  0.00000000E+00  0.00000000E+00  0.00000000E+00
  0.00000000E+00  0.00000000E+00  0.00000000E+00
  0.00000000E+00  0.00000000E+00  0.00000000E+00
  0.00000000E+00  0.00000000E+00  0.00000000E+00
  0.00000000E+00  0.00000000E+00  0.00000000E+00
  0.00000000E+00  0.00000000E+00  0.00000000E+00
  0.00000000E+00  0.00000000E+00  0.00000000E+00
  0.00000000E+00  0.00000000E+00  0.00000000E+00
  0.00000000E+00  0.00000000E+00  0.00000000E+00
  0.00000000E+00  0.00000000E+00  0.00000000E+00
  0.00000000E+00  0.00000000E+00  0.00000000E+00
