Primitive Cell                          
   1.00000000000000     
     6.2233041392795485    0.7283874478598151    0.1162523301132472
    -0.6145644800149668    3.8557373663748344   -0.7661518086237767
    -2.6316456786622187   -1.3037374504994930   14.5999692649706585
   Li   C    O    F 
    16     4    12     8
Selective dynamics
Direct
  0.5967669719901210  0.7201316343091761  0.9571850998090952   T   T   T
  0.0967587872617912  0.7201709225359920  0.9571987023739155   T   T   T
  0.6535161448421434  0.1090287981763964  0.3532451127559142   T   T   T
  0.1534739267722074  0.1090479667271538  0.3532498160777919   T   T   T
  0.2160771264887487  0.2100371554205864  0.8445951531475302   T   T   T
  0.7161068510529489  0.2100479960394708  0.8445902143489263   T   T   T
  0.9278341263605725  0.6844424494779133  0.4327996624099697   T   T   T
  0.4278063301981945  0.6844432155209574  0.4327871245345918   T   T   T
  0.3464838551578566  0.8909712018236036  0.6467548872440858   T   T   T
  0.8465260732277926  0.8909520332728462  0.6467501839222081   T   T   T
  0.4032330280098790  0.2798683656908239  0.0428149001909190   T   T   T
  0.9032412127382088  0.2798290774640080  0.0428012976260845   T   T   T
  0.5721936698018055  0.3155567844790497  0.5672128754654082   T   T   T
  0.0721658736394275  0.3155575505220867  0.5672003375900303   T   T   T
  0.2838931489470511  0.7899520039605292  0.1554097856510666   T   T   T
  0.7839228735112513  0.7899628445794136  0.1554048468524698   T   T   T
  0.5338258273866998  0.4267314961382738  0.2530885004423595   T   T   T
  0.0338072303422052  0.4266848407718768  0.2531152352632375   T   T   T
  0.9661927696578019  0.5733151592281232  0.7468847647367625   T   T   T
  0.4661741726133002  0.5732685038617262  0.7469114995576405   T   T   T
  0.0445563662212862  0.5307438814055985  0.1780559556515442   T   T   T
  0.5445930095576870  0.5308891334323320  0.1780515036086214   T   T   T
  0.8646066289717282  0.3874633223744155  0.6634777965297332   T   T   T
  0.3646717485096715  0.3875177645750512  0.6634526368387270   T   T   T
  0.6353282514903285  0.6124822354249488  0.3365473631612730   T   T   T
  0.1353933710282647  0.6125366776255916  0.3365222034702668   T   T   T
  0.4554069904423130  0.4691108665676680  0.8219484963913786   T   T   T
  0.9554436337787138  0.4692561185944015  0.8219440443484558   T   T   T
  0.9223554215597218  0.1453664484143218  0.2479624992116598   T   T   T
  0.4223781167043370  0.1454236977286314  0.2480160816721622   T   T   T
  0.0776445784402782  0.8546335515856853  0.7520375007883402   T   T   T
  0.5776218832956630  0.8545763022713686  0.7519839183278378   T   T   T
  0.9260211321466372  0.1907194812174140  0.4394309439654265   T   T   T
  0.4260263356975855  0.1906935069710514  0.4394124356227564   T   T   T
  0.3810849178716467  0.7882914169653716  0.0367918735502499   T   T   T
  0.8810442393157558  0.7882779292532476  0.0367761167694169   T   T   T
  0.6189150821283533  0.2117085830346284  0.9632081264497501   T   T   T
  0.1189557606842513  0.2117220707467524  0.9632238832305831   T   T   T
  0.0739788678533628  0.8092805187825860  0.5605690560345735   T   T   T
  0.5739736643024145  0.8093064930289486  0.5605875643772436   T   T   T
 
  0.00000000E+00  0.00000000E+00  0.00000000E+00
  0.00000000E+00  0.00000000E+00  0.00000000E+00
  0.00000000E+00  0.00000000E+00  0.00000000E+00
  0.00000000E+00  0.00000000E+00  0.00000000E+00
  0.00000000E+00  0.00000000E+00  0.00000000E+00
  0.00000000E+00  0.00000000E+00  0.00000000E+00
  0.00000000E+00  0.00000000E+00  0.00000000E+00
  0.00000000E+00  0.00000000E+00  0.00000000E+00
  0.00000000E+00  0.00000000E+00  0.00000000E+00
  0.00000000E+00  0.00000000E+00  0.00000000E+00
  0.00000000E+00  0.00000000E+00  0.00000000E+00
  0.00000000E+00  0.00000000E+00  0.00000000E+00
  0.00000000E+00  0.00000000E+00  0.00000000E+00
  0.00000000E+00  0.00000000E+00  0.00000000E+00
  0.00000000E+00  0.00000000E+00  0.00000000E+00
  0.00000000E+00  0.00000000E+00  0.00000000E+00
  0.00000000E+00  0.00000000E+00  0.00000000E+00
  0.00000000E+00  0.00000000E+00  0.00000000E+00
  0.00000000E+00  0.00000000E+00  0.00000000E+00
  0.00000000E+00  0.00000000E+00  0.00000000E+00
  0.00000000E+00  0.00000000E+00  0.00000000E+00
  0.00000000E+00  0.00000000E+00  0.00000000E+00
  0.00000000E+00  0.00000000E+00  0.00000000E+00
  0.00000000E+00  0.00000000E+00  0.00000000E+00
  0.00000000E+00  0.00000000E+00  0.00000000E+00
  0.00000000E+00  0.00000000E+00  0.00000000E+00
  0.00000000E+00  0.00000000E+00  0.00000000E+00
  0.00000000E+00  0.00000000E+00  0.00000000E+00
  0.00000000E+00  0.00000000E+00  0.00000000E+00
  0.00000000E+00  0.00000000E+00  0.00000000E+00
  0.00000000E+00  0.00000000E+00  0.00000000E+00
  0.00000000E+00  0.00000000E+00  0.00000000E+00
  0.00000000E+00  0.00000000E+00  0.00000000E+00
  0.00000000E+00  0.00000000E+00  0.00000000E+00
  0.00000000E+00  0.00000000E+00  0.00000000E+00
  0.00000000E+00  0.00000000E+00  0.00000000E+00
  0.00000000E+00  0.00000000E+00  0.00000000E+00
  0.00000000E+00  0.00000000E+00  0.00000000E+00
  0.00000000E+00  0.00000000E+00  0.00000000E+00
  0.00000000E+00  0.00000000E+00  0.00000000E+00
