Primitive Cell                          
   1.00000000000000     
     3.1030112293695917    0.0001398444743995   -0.1580758351346983
     0.0000995946775955    4.7040499191588312    0.0001784570677336
    -0.7890185232872668   -0.0002137423192659   13.6076522901492609
   Li   C    O    F 
     8     2     6     4
Selective dynamics
Direct
  0.6982992314922277  0.2466206649844289  0.9940022537258933   T   T   T
  0.2517977105191292  0.6716659667192052  0.1085752707285220   T   T   T
  0.9479039070444715  0.7715741260100945  0.5311514914703276   T   T   T
  0.4799717437870819  0.2565377992078625  0.5915670311935034   T   T   T
  0.7981183174176326  0.1716837368725151  0.2202705213502109   T   T   T
  0.3522406485358684  0.7466837313805194  0.3348569887260548   T   T   T
  0.5704991141271388  0.7565549855783653  0.7373148396807084   T   T   T
  0.1026319668066659  0.2715623104256487  0.7977341219455244   T   T   T
  0.8916416445106434  0.2543344615952190  0.4182995043794126   T   T   T
  0.1584725095121976  0.7542482427562235  0.9105857882441450   T   T   T
  0.1992188698237406  0.9198695591018916  0.9862345243823512   T   T   T
  0.9401562057966991  0.3613255075110266  0.5084227620080375   T   T   T
  0.8866926850587711  0.9801706158282606  0.4079192533481728   T   T   T
  0.8501954390436144  0.4198916713144664  0.3426385941240883   T   T   T
  0.1638297985468851  0.4801591662597479  0.9209344945957084   T   T   T
  0.1103330705611336  0.8612889267361911  0.8204481495316456   T   T   T
  0.4821097904399985  0.8563506941803949  0.6042381287391235   T   T   T
  0.7545904591237053  0.4349559525684830  0.1150726263946767   T   T   T
  0.5683548157821934  0.3563312607978279  0.7245936799579760   T   T   T
  0.2954130071696972  0.9349781842182888  0.2138105613956105   T   T   T
 
  0.00000000E+00  0.00000000E+00  0.00000000E+00
  0.00000000E+00  0.00000000E+00  0.00000000E+00
  0.00000000E+00  0.00000000E+00  0.00000000E+00
  0.00000000E+00  0.00000000E+00  0.00000000E+00
  0.00000000E+00  0.00000000E+00  0.00000000E+00
  0.00000000E+00  0.00000000E+00  0.00000000E+00
  0.00000000E+00  0.00000000E+00  0.00000000E+00
  0.00000000E+00  0.00000000E+00  0.00000000E+00
  0.00000000E+00  0.00000000E+00  0.00000000E+00
  0.00000000E+00  0.00000000E+00  0.00000000E+00
  0.00000000E+00  0.00000000E+00  0.00000000E+00
  0.00000000E+00  0.00000000E+00  0.00000000E+00
  0.00000000E+00  0.00000000E+00  0.00000000E+00
  0.00000000E+00  0.00000000E+00  0.00000000E+00
  0.00000000E+00  0.00000000E+00  0.00000000E+00
  0.00000000E+00  0.00000000E+00  0.00000000E+00
  0.00000000E+00  0.00000000E+00  0.00000000E+00
  0.00000000E+00  0.00000000E+00  0.00000000E+00
  0.00000000E+00  0.00000000E+00  0.00000000E+00
  0.00000000E+00  0.00000000E+00  0.00000000E+00
