Primitive Cell                          
   1.00000000000000     
     3.0581637222712827    0.0001089983793568    0.0000449304751491
    -0.0000588482915737    5.0440862004959541    0.0001183449094203
    -0.0002084358354932   -0.0009617825573452   26.5008619316242964
   Li   C    O    F 
    16     4    12     8
Selective dynamics
Direct
  0.0312310636577848  0.9019829874322838  0.9456150013623486   T   T   T
  0.9792756542141348  0.9020346815829186  0.4456149311395592   T   T   T
  0.9674411594108037  0.9171289879233200  0.5595923440498538   T   T   T
  0.0435040463735703  0.9170721189654358  0.0596017282271646   T   T   T
  0.9792647736926412  0.4019923102308169  0.8104993435225154   T   T   T
  0.0312504983710440  0.4019451095604580  0.3105021098783851   T   T   T
  0.9673617115619919  0.4171208233353525  0.6965172900889485   T   T   T
  0.0434654383274093  0.4170555438288375  0.1965256137269904   T   T   T
  0.4852303064875798  0.8793351625646793  0.8413684829661108   T   T   T
  0.5253720785642244  0.8793226143734358  0.3413679069208300   T   T   T
  0.4687783740322473  0.0224031252809525  0.6658102297260626   T   T   T
  0.5421567273833503  0.0223542984599447  0.1658216081041317   T   T   T
  0.5253335549666360  0.3793529753177936  0.9147522397687169   T   T   T
  0.4852459498266768  0.3793627915873756  0.4147493651380003   T   T   T
  0.4687877107008021  0.5224088434629408  0.5902977422128757   T   T   T
  0.5421470652402078  0.5223557629307862  0.0903095926716020   T   T   T
  0.0360406155977202  0.3922438231760665  0.0014804843141434   T   T   T
  0.9746971532931994  0.3921962725356494  0.5014782538413272   T   T   T
  0.9746772629752485  0.8922362213637456  0.7546465822097588   T   T   T
  0.0360508345820634  0.8922523883283731  0.2546489741514009   T   T   T
  0.0280493420313448  0.5146351592836211  0.9578397469745070   T   T   T
  0.9825947512281772  0.5147738934222090  0.4578348302395341   T   T   T
  0.9825806812276383  0.0147163703157531  0.7983035464480679   T   T   T
  0.0280852014611384  0.0145929198123653  0.2983057228750567   T   T   T
  0.9719423442540460  0.6380731012741734  0.7531905022898115   T   T   T
  0.0386334735901599  0.6381543228484148  0.2531890050115777   T   T   T
  0.9691110789606938  0.0297149376095831  0.7128140639704270   T   T   T
  0.0418335892203103  0.0295365608782419  0.2128109049800813   T   T   T
  0.0386328697649958  0.1380643041887808  0.0029328970088116   T   T   T
  0.9719800167612149  0.1379948416770276  0.5029261164154235   T   T   T
  0.9691356228785537  0.5297615005790561  0.5432972679089900   T   T   T
  0.0418204314317094  0.5295568420698373  0.0433037669801948   T   T   T
  0.5311892622999395  0.0049105623440440  0.9068188773018662   T   T   T
  0.4793354578112030  0.0049357426125312  0.4068155430830771   T   T   T
  0.4676871956472013  0.3980075002134598  0.6551066068735238   T   T   T
  0.5431169198224097  0.3979724948248133  0.1551058044380511   T   T   T
  0.4793092420424259  0.5049198761956504  0.8492816908830036   T   T   T
  0.5312179375515598  0.5049069725834840  0.3492791100694888   T   T   T
  0.4677624915711291  0.8980423490800646  0.6010379892005346   T   T   T
  0.5431524176809717  0.8979775651383335  0.1010361238491839   T   T   T
 
  0.00000000E+00  0.00000000E+00  0.00000000E+00
  0.00000000E+00  0.00000000E+00  0.00000000E+00
  0.00000000E+00  0.00000000E+00  0.00000000E+00
  0.00000000E+00  0.00000000E+00  0.00000000E+00
  0.00000000E+00  0.00000000E+00  0.00000000E+00
  0.00000000E+00  0.00000000E+00  0.00000000E+00
  0.00000000E+00  0.00000000E+00  0.00000000E+00
  0.00000000E+00  0.00000000E+00  0.00000000E+00
  0.00000000E+00  0.00000000E+00  0.00000000E+00
  0.00000000E+00  0.00000000E+00  0.00000000E+00
  0.00000000E+00  0.00000000E+00  0.00000000E+00
  0.00000000E+00  0.00000000E+00  0.00000000E+00
  0.00000000E+00  0.00000000E+00  0.00000000E+00
  0.00000000E+00  0.00000000E+00  0.00000000E+00
  0.00000000E+00  0.00000000E+00  0.00000000E+00
  0.00000000E+00  0.00000000E+00  0.00000000E+00
  0.00000000E+00  0.00000000E+00  0.00000000E+00
  0.00000000E+00  0.00000000E+00  0.00000000E+00
  0.00000000E+00  0.00000000E+00  0.00000000E+00
  0.00000000E+00  0.00000000E+00  0.00000000E+00
  0.00000000E+00  0.00000000E+00  0.00000000E+00
  0.00000000E+00  0.00000000E+00  0.00000000E+00
  0.00000000E+00  0.00000000E+00  0.00000000E+00
  0.00000000E+00  0.00000000E+00  0.00000000E+00
  0.00000000E+00  0.00000000E+00  0.00000000E+00
  0.00000000E+00  0.00000000E+00  0.00000000E+00
  0.00000000E+00  0.00000000E+00  0.00000000E+00
  0.00000000E+00  0.00000000E+00  0.00000000E+00
  0.00000000E+00  0.00000000E+00  0.00000000E+00
  0.00000000E+00  0.00000000E+00  0.00000000E+00
  0.00000000E+00  0.00000000E+00  0.00000000E+00
  0.00000000E+00  0.00000000E+00  0.00000000E+00
  0.00000000E+00  0.00000000E+00  0.00000000E+00
  0.00000000E+00  0.00000000E+00  0.00000000E+00
  0.00000000E+00  0.00000000E+00  0.00000000E+00
  0.00000000E+00  0.00000000E+00  0.00000000E+00
  0.00000000E+00  0.00000000E+00  0.00000000E+00
  0.00000000E+00  0.00000000E+00  0.00000000E+00
  0.00000000E+00  0.00000000E+00  0.00000000E+00
  0.00000000E+00  0.00000000E+00  0.00000000E+00
