Primitive Cell                          
   1.00000000000000     
     3.7840778069627352    0.6952853215380244   -0.5388569501284443
     0.4283846056033964    8.2362428622385799   -0.4702515599334317
    -2.2413246528170143   -2.7409619469307134    9.2391637498940611
   Li   C    O    F 
    12     3     9     6
Selective dynamics
Direct
  0.3425330586334192  0.6749215336469199  0.7372120713255367   T   T   T
  0.5145961447910083  0.1915036280265159  0.7072731101403331   T   T   T
  0.2574883261296687  0.1631518769209237  0.9191214875773123   T   T   T
  0.4332570385622888  0.4272242969535555  0.2354401699064391   T   T   T
  0.8073094541966660  0.9029113427982892  0.8302292531337974   T   T   T
  0.3045515944255661  0.9312407821553165  0.3923975537414343   T   T   T
  0.9195362647228039  0.4232903763259966  0.7371350910097061   T   T   T
  0.9637934373170618  0.0857706534603686  0.1369920022305492   T   T   T
  0.0285896533313937  0.9461696358365758  0.6075067687795082   T   T   T
  0.8528566453009822  0.6891737345007882  0.3080899534129997   T   T   T
  0.2039095253827657  0.3951439696847059  0.4615571393142142   T   T   T
  0.1406872835761403  0.6649510273368302  0.0766216352016417   T   T   T
  0.8088252125259231  0.5918250969325995  0.5590008724855428   T   T   T
  0.5413939947407790  0.0788192701677210  0.3042822076637950   T   T   T
  0.8805970802753424  0.3568830094614880  0.0410903717625284   T   T   T
  0.5427706626879711  0.1227297269237379  0.1911708628292500   T   T   T
  0.2772107109461865  0.1529145144897409  0.3608395757132939   T   T   T
  0.0160701325612034  0.6542990912023192  0.5192795478964560   T   T   T
  0.7938153674856956  0.6555828742822074  0.6967950261131005   T   T   T
  0.8228318564743823  0.4334428509956266  0.1696425437840789   T   T   T
  0.7587363187227236  0.2071957193761474  0.9542969122800499   T   T   T
  0.7771342354496525  0.9541254517245793  0.3584609279311432   T   T   T
  0.0892987624619583  0.4220722118690959  0.0041321232322518   T   T   T
  0.6575503042867046  0.4510340349150267  0.4685304005481075   T   T   T
  0.3248858386141760  0.6895553371181198  0.2849728493686727   T   T   T
  0.0159086553049511  0.1893320527466485  0.7071754246830623   T   T   T
  0.0187179167471887  0.8559082200750090  0.0252122484209822   T   T   T
  0.5230496238812476  0.9543491914743781  0.6072427355979241   T   T   T
  0.2919742809928131  0.9153607334843613  0.8255867350325662   T   T   T
  0.4132362023007013  0.4312168518880898  0.7263518734320417   T   T   T
 
  0.00000000E+00  0.00000000E+00  0.00000000E+00
  0.00000000E+00  0.00000000E+00  0.00000000E+00
  0.00000000E+00  0.00000000E+00  0.00000000E+00
  0.00000000E+00  0.00000000E+00  0.00000000E+00
  0.00000000E+00  0.00000000E+00  0.00000000E+00
  0.00000000E+00  0.00000000E+00  0.00000000E+00
  0.00000000E+00  0.00000000E+00  0.00000000E+00
  0.00000000E+00  0.00000000E+00  0.00000000E+00
  0.00000000E+00  0.00000000E+00  0.00000000E+00
  0.00000000E+00  0.00000000E+00  0.00000000E+00
  0.00000000E+00  0.00000000E+00  0.00000000E+00
  0.00000000E+00  0.00000000E+00  0.00000000E+00
  0.00000000E+00  0.00000000E+00  0.00000000E+00
  0.00000000E+00  0.00000000E+00  0.00000000E+00
  0.00000000E+00  0.00000000E+00  0.00000000E+00
  0.00000000E+00  0.00000000E+00  0.00000000E+00
  0.00000000E+00  0.00000000E+00  0.00000000E+00
  0.00000000E+00  0.00000000E+00  0.00000000E+00
  0.00000000E+00  0.00000000E+00  0.00000000E+00
  0.00000000E+00  0.00000000E+00  0.00000000E+00
  0.00000000E+00  0.00000000E+00  0.00000000E+00
  0.00000000E+00  0.00000000E+00  0.00000000E+00
  0.00000000E+00  0.00000000E+00  0.00000000E+00
  0.00000000E+00  0.00000000E+00  0.00000000E+00
  0.00000000E+00  0.00000000E+00  0.00000000E+00
  0.00000000E+00  0.00000000E+00  0.00000000E+00
  0.00000000E+00  0.00000000E+00  0.00000000E+00
  0.00000000E+00  0.00000000E+00  0.00000000E+00
  0.00000000E+00  0.00000000E+00  0.00000000E+00
  0.00000000E+00  0.00000000E+00  0.00000000E+00
