Primitive Cell                          
   1.00000000000000     
     5.0812479253471663   -0.0004800378417641    0.0027238953103596
    -0.0191620717369472    8.7019223078645638   -0.0054846935148337
    -0.0114086112800835   -0.1221897182812414   10.5996179566318176
   Li   C    O    F 
    16     4    12     8
Selective dynamics
Direct
  0.4829126342671444  0.0442380715887367  0.6775749579631380   T   T   T
  0.8793710397132912  0.5492840537429657  0.6777587277519643   T   T   T
  0.8602158866440206  0.8996423999704177  0.8003951000946827   T   T   T
  0.3536959341939010  0.4035047458128247  0.7924347305075017   T   T   T
  0.3572526872504582  0.6993893009347616  0.2955101411532510   T   T   T
  0.9994273819059529  0.2014803353690127  0.3028018696363262   T   T   T
  0.8806635347521663  0.5558944467462368  0.1766600671518148   T   T   T
  0.3702979696598661  0.0472765660085557  0.1788136706461785   T   T   T
  0.8565025714071837  0.9033231138539861  0.2878829273661481   T   T   T
  0.5001153766417019  0.4017720461741376  0.2935029480769913   T   T   T
  0.8807390909340853  0.5592731201571866  0.4120007187445580   T   T   T
  0.4848508003448089  0.0557881633202655  0.4126523861392641   T   T   T
  0.8526628788674984  0.2006622139145762  0.7992450481030602   T   T   T
  0.3584172169666289  0.6980521213854018  0.7963887359378745   T   T   T
  0.8785797606106627  0.5495209014671474  0.9106919104962046   T   T   T
  0.3693015791617071  0.0561872916934476  0.9107925336561493   T   T   T
  0.8604632742197538  0.0551811472327870  0.0449811180530375   T   T   T
  0.3694935165952771  0.5522070843582156  0.0433449508915942   T   T   T
  0.9931406562013123  0.0468150998361168  0.5450250690205891   T   T   T
  0.3698977744201031  0.5537688398742802  0.5453563191633108   T   T   T
  0.9919251714547599  0.0445624259360784  0.1505441192673302   T   T   T
  0.4997587492571114  0.5592386546339867  0.1496738244837204   T   T   T
  0.8620444679426669  0.0454237514161235  0.6507415145620783   T   T   T
  0.4953748135140188  0.5517743712294347  0.6533712884329645   T   T   T
  0.6087729358350984  0.0659204166776561  0.0467085309542767   T   T   T
  0.1169891099827680  0.5466962962210431  0.0445001028377376   T   T   T
  0.9859809237410246  0.0544221959470548  0.9367986358870226   T   T   T
  0.4950417253815758  0.5510895964577998  0.9354467741360537   T   T   T
  0.5004647335478651  0.5626991405255239  0.4394183284817004   T   T   T
  0.2451653501454274  0.0372125413703799  0.5455498795555727   T   T   T
  0.1176098231834288  0.5469094911071650  0.5437779078664491   T   T   T
  0.8665034556858799  0.0582805804059561  0.4378858150747504   T   T   T
  0.4879576348063921  0.8958188077263003  0.2894700979540374   T   T   T
  0.8682186805625278  0.3947920439972634  0.2938235675008301   T   T   T
  0.9881354584924082  0.7077868653678081  0.2948694481077965   T   T   T
  0.3667707570723309  0.2086551824965568  0.3018579552181819   T   T   T
  0.4857488283350548  0.8932503015365896  0.8030371830301775   T   T   T
  0.9808779447737948  0.3948385126022629  0.7929752285693112   T   T   T
  0.9859760011068701  0.7046397402073552  0.7959970140433938   T   T   T
  0.4786675156690947  0.2080791274119846  0.7951224930193632   T   T   T
 
  0.00000000E+00  0.00000000E+00  0.00000000E+00
  0.00000000E+00  0.00000000E+00  0.00000000E+00
  0.00000000E+00  0.00000000E+00  0.00000000E+00
  0.00000000E+00  0.00000000E+00  0.00000000E+00
  0.00000000E+00  0.00000000E+00  0.00000000E+00
  0.00000000E+00  0.00000000E+00  0.00000000E+00
  0.00000000E+00  0.00000000E+00  0.00000000E+00
  0.00000000E+00  0.00000000E+00  0.00000000E+00
  0.00000000E+00  0.00000000E+00  0.00000000E+00
  0.00000000E+00  0.00000000E+00  0.00000000E+00
  0.00000000E+00  0.00000000E+00  0.00000000E+00
  0.00000000E+00  0.00000000E+00  0.00000000E+00
  0.00000000E+00  0.00000000E+00  0.00000000E+00
  0.00000000E+00  0.00000000E+00  0.00000000E+00
  0.00000000E+00  0.00000000E+00  0.00000000E+00
  0.00000000E+00  0.00000000E+00  0.00000000E+00
  0.00000000E+00  0.00000000E+00  0.00000000E+00
  0.00000000E+00  0.00000000E+00  0.00000000E+00
  0.00000000E+00  0.00000000E+00  0.00000000E+00
  0.00000000E+00  0.00000000E+00  0.00000000E+00
  0.00000000E+00  0.00000000E+00  0.00000000E+00
  0.00000000E+00  0.00000000E+00  0.00000000E+00
  0.00000000E+00  0.00000000E+00  0.00000000E+00
  0.00000000E+00  0.00000000E+00  0.00000000E+00
  0.00000000E+00  0.00000000E+00  0.00000000E+00
  0.00000000E+00  0.00000000E+00  0.00000000E+00
  0.00000000E+00  0.00000000E+00  0.00000000E+00
  0.00000000E+00  0.00000000E+00  0.00000000E+00
  0.00000000E+00  0.00000000E+00  0.00000000E+00
  0.00000000E+00  0.00000000E+00  0.00000000E+00
  0.00000000E+00  0.00000000E+00  0.00000000E+00
  0.00000000E+00  0.00000000E+00  0.00000000E+00
  0.00000000E+00  0.00000000E+00  0.00000000E+00
  0.00000000E+00  0.00000000E+00  0.00000000E+00
  0.00000000E+00  0.00000000E+00  0.00000000E+00
  0.00000000E+00  0.00000000E+00  0.00000000E+00
  0.00000000E+00  0.00000000E+00  0.00000000E+00
  0.00000000E+00  0.00000000E+00  0.00000000E+00
  0.00000000E+00  0.00000000E+00  0.00000000E+00
  0.00000000E+00  0.00000000E+00  0.00000000E+00
