Primitive Cell                          
   1.00000000000000     
     2.5562559084075542   -6.5080205782000631    0.0000000000000000
     2.5562559084075542    6.5080205782000631    0.0000000000000000
     0.0000000000000000    0.0000000000000000    3.2347776957909957
   Li   C    O    F 
     4     1     3     2
Selective dynamics
Direct
  0.8478395493002324  0.6179129113444830  0.0000000000000000   T   T   T
  0.6179129113444830  0.8478395493002324  0.0000000000000000   T   T   T
  0.5190574587862642  0.1679159140868478  0.5000000000000000   T   T   T
  0.1679159140868478  0.5190574587862642  0.5000000000000000   T   T   T
  0.2117428995072288  0.2117428995072288  0.0000000000000000   T   T   T
  0.9613193970543392  0.9613193970543392  0.0000000000000000   T   T   T
  0.4278727481159308  0.2542408613315814  0.0000000000000000   T   T   T
  0.2542408613315814  0.4278727481159308  0.0000000000000000   T   T   T
  0.9092189685871404  0.5250613987424728  0.5000000000000000   T   T   T
  0.5250613987424728  0.9092189685871404  0.5000000000000000   T   T   T
 
  0.00000000E+00  0.00000000E+00  0.00000000E+00
  0.00000000E+00  0.00000000E+00  0.00000000E+00
  0.00000000E+00  0.00000000E+00  0.00000000E+00
  0.00000000E+00  0.00000000E+00  0.00000000E+00
  0.00000000E+00  0.00000000E+00  0.00000000E+00
  0.00000000E+00  0.00000000E+00  0.00000000E+00
  0.00000000E+00  0.00000000E+00  0.00000000E+00
  0.00000000E+00  0.00000000E+00  0.00000000E+00
  0.00000000E+00  0.00000000E+00  0.00000000E+00
  0.00000000E+00  0.00000000E+00  0.00000000E+00
