Primitive Cell                          
   1.00000000000000     
     3.1424410030387837    0.2298232725790398    0.3008041277343888
    -0.3628939811939624    3.8663726022630445   -0.7166916000229374
    -0.5389363343830810   -1.2006391097799258   14.7006283237747919
   Li   C    O    F 
     8     2     6     4
Selective dynamics
Direct
  0.2639741984187580  0.7809936527138461  0.0420921901801847   T   T   T
  0.5292071320655509  0.3913153277703429  0.6468240141088870   T   T   T
  0.9272226650651447  0.2935793080850218  0.1568196158933546   T   T   T
  0.0637989866513067  0.8154627333318274  0.5678286651360622   T   T   T
  0.4707928679344491  0.6086846722296571  0.3531759858911130   T   T   T
  0.7360258015812420  0.2190063472861468  0.9579078098198153   T   T   T
  0.9362010133486933  0.1845372666681726  0.4321713348639378   T   T   T
  0.0727773349348553  0.7064206919149854  0.8431803841066454   T   T   T
  0.6656942474021577  0.0719327099731686  0.7470449374260184   T   T   T
  0.3343057525978423  0.9280672900268314  0.2529550625739816   T   T   T
  0.5706338894807601  0.9661139781622694  0.8218584213673807   T   T   T
  0.4521564299917387  0.1115016148716563  0.3361343756199773   T   T   T
  0.5478435700082613  0.8884983851283437  0.6638656243800227   T   T   T
  0.4293661105192399  0.0338860218377306  0.1781415786326193   T   T   T
  0.8813863080398292  0.3534687539103487  0.7520460809670126   T   T   T
  0.1186136919601708  0.6465312460896513  0.2479539190329874   T   T   T
  0.0746014898341798  0.3102263555619871  0.5611987404330421   T   T   T
  0.7759877310028216  0.7111413164078471  0.9633373758776713   T   T   T
  0.2240122689971713  0.2888586835921529  0.0366626241223287   T   T   T
  0.9253985101658202  0.6897736444380129  0.4388012595669579   T   T   T
 
  0.00000000E+00  0.00000000E+00  0.00000000E+00
  0.00000000E+00  0.00000000E+00  0.00000000E+00
  0.00000000E+00  0.00000000E+00  0.00000000E+00
  0.00000000E+00  0.00000000E+00  0.00000000E+00
  0.00000000E+00  0.00000000E+00  0.00000000E+00
  0.00000000E+00  0.00000000E+00  0.00000000E+00
  0.00000000E+00  0.00000000E+00  0.00000000E+00
  0.00000000E+00  0.00000000E+00  0.00000000E+00
  0.00000000E+00  0.00000000E+00  0.00000000E+00
  0.00000000E+00  0.00000000E+00  0.00000000E+00
  0.00000000E+00  0.00000000E+00  0.00000000E+00
  0.00000000E+00  0.00000000E+00  0.00000000E+00
  0.00000000E+00  0.00000000E+00  0.00000000E+00
  0.00000000E+00  0.00000000E+00  0.00000000E+00
  0.00000000E+00  0.00000000E+00  0.00000000E+00
  0.00000000E+00  0.00000000E+00  0.00000000E+00
  0.00000000E+00  0.00000000E+00  0.00000000E+00
  0.00000000E+00  0.00000000E+00  0.00000000E+00
  0.00000000E+00  0.00000000E+00  0.00000000E+00
  0.00000000E+00  0.00000000E+00  0.00000000E+00
