Primitive Cell                          
   1.00000000000000     
     5.0200527153974051   -0.2165242354653424   -0.1517941567115742
     0.5069274310431111    8.4982142544785209   -1.3652544768811701
     0.3978312795482296    1.4071318482285882   10.4300397571244581
   Li   C    O    F 
    16     4    12     8
Selective dynamics
Direct
  0.4808050623003197  0.0030211258897737  0.2720223186276129   T   T   T
  0.8755503182154030  0.4924844153209449  0.2727076952837706   T   T   T
  0.8587164064027277  0.1435308453760697  0.1487906853140473   T   T   T
  0.3559090159720384  0.6417269591997652  0.1610371624127254   T   T   T
  0.3548409682986460  0.3462035857076984  0.6562285402686214   T   T   T
  0.8549026311211421  0.8420061987971721  0.6551796604226325   T   T   T
  0.8771183591818286  0.4964071376190375  0.7729235647931745   T   T   T
  0.3675112296201775  0.9897241081883550  0.7695297738541456   T   T   T
  0.8576198810877926  0.1416712326373144  0.6635891887858776   T   T   T
  0.3562416341500594  0.6393848605284873  0.6561530717906976   T   T   T
  0.8751970001298943  0.4867676830325820  0.5408510180816890   T   T   T
  0.4801214474076261  0.9959204752334401  0.5372185769697992   T   T   T
  0.8540750213808579  0.8436461751813695  0.1507557672678672   T   T   T
  0.3551728436688606  0.3485543354716540  0.1516668404008996   T   T   T
  0.8767653906347590  0.4947729080324663  0.0407742086627039   T   T   T
  0.3670185549929670  0.9869720793047208  0.0399025489719946   T   T   T
  0.8583062172417542  0.9836780269360546  0.9044178197749275   T   T   T
  0.3679978883024262  0.4967312510750048  0.9064116806967704   T   T   T
  0.9903537293440010  0.0006140609040912  0.4045526253078577   T   T   T
  0.3656040060432204  0.4878377652100383  0.4062889382171235   T   T   T
  0.9875152341713473  0.9901368208738646  0.7966612988636470   T   T   T
  0.4960712504620659  0.4976941582527701  0.7982456486242526   T   T   T
  0.8613995969325501  0.9996567450929632  0.2972827937391429   T   T   T
  0.4940622270335453  0.4928897727474677  0.2982527433262376   T   T   T
  0.6046565663206067  0.9740611902205103  0.9042173785613556   T   T   T
  0.1130613344072842  0.4967278340308567  0.9067544812376696   T   T   T
  0.9872774850882564  0.9865333463826289  0.0122253853896837   T   T   T
  0.4965274453772608  0.4952075536517384  0.0142079537685262   T   T   T
  0.4945011078287322  0.4868118438369180  0.5141615054370092   T   T   T
  0.2443722556271979  0.0102186097387928  0.4049499780433194   T   T   T
  0.1110482879442145  0.4837800627669537  0.4064504416312218   T   T   T
  0.8608216962123834  0.9923656805735135  0.5113647745080598   T   T   T
  0.4824644150911013  0.1501478850161249  0.6660505986028582   T   T   T
  0.9827217868088525  0.6458126747028601  0.6559730920443698   T   T   T
  0.9817954552148223  0.3353803411231056  0.6574734276542316   T   T   T
  0.4774368318670170  0.8338694602001766  0.6509830205363798   T   T   T
  0.4824533195912437  0.1518544573557463  0.1458645787955959   T   T   T
  0.9825265496152369  0.6481234501148947  0.1610847836708942   T   T   T
  0.9821584699457446  0.3375828799678828  0.1518462831133434   T   T   T
  0.4775895389223166  0.8361080371656016  0.1556523549814131   T   T   T
 
  0.00000000E+00  0.00000000E+00  0.00000000E+00
  0.00000000E+00  0.00000000E+00  0.00000000E+00
  0.00000000E+00  0.00000000E+00  0.00000000E+00
  0.00000000E+00  0.00000000E+00  0.00000000E+00
  0.00000000E+00  0.00000000E+00  0.00000000E+00
  0.00000000E+00  0.00000000E+00  0.00000000E+00
  0.00000000E+00  0.00000000E+00  0.00000000E+00
  0.00000000E+00  0.00000000E+00  0.00000000E+00
  0.00000000E+00  0.00000000E+00  0.00000000E+00
  0.00000000E+00  0.00000000E+00  0.00000000E+00
  0.00000000E+00  0.00000000E+00  0.00000000E+00
  0.00000000E+00  0.00000000E+00  0.00000000E+00
  0.00000000E+00  0.00000000E+00  0.00000000E+00
  0.00000000E+00  0.00000000E+00  0.00000000E+00
  0.00000000E+00  0.00000000E+00  0.00000000E+00
  0.00000000E+00  0.00000000E+00  0.00000000E+00
  0.00000000E+00  0.00000000E+00  0.00000000E+00
  0.00000000E+00  0.00000000E+00  0.00000000E+00
  0.00000000E+00  0.00000000E+00  0.00000000E+00
  0.00000000E+00  0.00000000E+00  0.00000000E+00
  0.00000000E+00  0.00000000E+00  0.00000000E+00
  0.00000000E+00  0.00000000E+00  0.00000000E+00
  0.00000000E+00  0.00000000E+00  0.00000000E+00
  0.00000000E+00  0.00000000E+00  0.00000000E+00
  0.00000000E+00  0.00000000E+00  0.00000000E+00
  0.00000000E+00  0.00000000E+00  0.00000000E+00
  0.00000000E+00  0.00000000E+00  0.00000000E+00
  0.00000000E+00  0.00000000E+00  0.00000000E+00
  0.00000000E+00  0.00000000E+00  0.00000000E+00
  0.00000000E+00  0.00000000E+00  0.00000000E+00
  0.00000000E+00  0.00000000E+00  0.00000000E+00
  0.00000000E+00  0.00000000E+00  0.00000000E+00
  0.00000000E+00  0.00000000E+00  0.00000000E+00
  0.00000000E+00  0.00000000E+00  0.00000000E+00
  0.00000000E+00  0.00000000E+00  0.00000000E+00
  0.00000000E+00  0.00000000E+00  0.00000000E+00
  0.00000000E+00  0.00000000E+00  0.00000000E+00
  0.00000000E+00  0.00000000E+00  0.00000000E+00
  0.00000000E+00  0.00000000E+00  0.00000000E+00
  0.00000000E+00  0.00000000E+00  0.00000000E+00
