Primitive Cell                          
   1.00000000000000     
     3.7784930222191120   -0.2705289557608974    0.0860919279971300
    -1.3913174335660667    7.5349426667420820    2.2947082395395806
    -0.4895781471693546   -1.2638329782502709   12.5242347991672656
   Li   C    O    F 
    16     4    12     8
Selective dynamics
Direct
  0.3693394605013012  0.2468501427727006  0.2066597116261377   T   T   T
  0.9949957128095122  0.4679921694160143  0.4098429008337519   T   T   T
  0.8209466471408504  0.1378705912194462  0.0902689295143873   T   T   T
  0.5666409890680200  0.6237906451947026  0.2673103732235234   T   T   T
  0.5034348404173556  0.5433433426315659  0.7484647108558846   T   T   T
  0.7364890388718663  0.0212075028101211  0.5787253748774290   T   T   T
  0.8530631509824218  0.2135174219691436  0.8587107570714778   T   T   T
  0.6693221078940397  0.8663489992501638  0.8108747056592662   T   T   T
  0.1183891342012515  0.7857883061210487  0.6668966625565531   T   T   T
  0.3032119051151270  0.1355527781648220  0.7129852712067120   T   T   T
  0.9432069347807328  0.3961006109858118  0.6532130069128357   T   T   T
  0.3132316485156750  0.1796440916310260  0.4430947385718866   T   T   T
  0.0131084665845904  0.5126575702585470  0.1387663558699401   T   T   T
  0.1801650204172915  0.8689667785441699  0.1841050042307657   T   T   T
  0.4139534573492796  0.3748141346645184  0.9871900910543729   T   T   T
  0.2139434062355292  0.9735134568599477  0.9388693679749096   T   T   T
  0.8690508944560023  0.5113128659730251  0.8815253550710125   T   T   T
  0.5486655697310994  0.8563547352819469  0.0555164152380385   T   T   T
  0.6997818781178893  0.1481233322394502  0.3276092532760302   T   T   T
  0.6104773392041380  0.4922250768972063  0.5285854808706958   T   T   T
  0.0098146865668980  0.5196120553165002  0.7849856155404638   T   T   T
  0.9406226835969562  0.3994423295872380  0.9663702234651481   T   T   T
  0.8812768775029767  0.2231073327762800  0.2360520319827941   T   T   T
  0.4751204226957739  0.4625157536580744  0.4357608913804611   T   T   T
  0.2244551547886715  0.7713509349042340  0.0511322098969842   T   T   T
  0.6296446225035695  0.5945730779933669  0.8905397664635188   T   T   T
  0.7207535651899235  0.9582945924451209  0.9664454594799139   T   T   T
  0.6941441361062957  0.8633801327398416  0.1499673990495580   T   T   T
  0.4312686626411448  0.4165930560125375  0.6211566156146588   T   T   T
  0.3770096614246370  0.0564901564495344  0.3264354064590052   T   T   T
  0.9355894688105195  0.5802360072329122  0.5304347821147246   T   T   T
  0.8311308617584885  0.1825886227344853  0.4202429307952258   T   T   T
  0.6179579557754806  0.7856045079695164  0.6672500553536622   T   T   T
  0.8081819265077996  0.1467071831904363  0.7123527678544548   T   T   T
  0.1819892826885336  0.8899632813991474  0.8032096146259562   T   T   T
  0.2410963514017581  0.0301260832753059  0.5793563048698545   T   T   T
  0.3196367651922998  0.1424256803123782  0.0849000345364885   T   T   T
  0.0656354597621132  0.6217123368616271  0.2728736710881918   T   T   T
  0.3530830894142980  0.2199013019685694  0.8562908116613244   T   T   T
  0.5024003794868079  0.4859453032591361  0.1474234139187729   T   T   T
 
  0.00000000E+00  0.00000000E+00  0.00000000E+00
  0.00000000E+00  0.00000000E+00  0.00000000E+00
  0.00000000E+00  0.00000000E+00  0.00000000E+00
  0.00000000E+00  0.00000000E+00  0.00000000E+00
  0.00000000E+00  0.00000000E+00  0.00000000E+00
  0.00000000E+00  0.00000000E+00  0.00000000E+00
  0.00000000E+00  0.00000000E+00  0.00000000E+00
  0.00000000E+00  0.00000000E+00  0.00000000E+00
  0.00000000E+00  0.00000000E+00  0.00000000E+00
  0.00000000E+00  0.00000000E+00  0.00000000E+00
  0.00000000E+00  0.00000000E+00  0.00000000E+00
  0.00000000E+00  0.00000000E+00  0.00000000E+00
  0.00000000E+00  0.00000000E+00  0.00000000E+00
  0.00000000E+00  0.00000000E+00  0.00000000E+00
  0.00000000E+00  0.00000000E+00  0.00000000E+00
  0.00000000E+00  0.00000000E+00  0.00000000E+00
  0.00000000E+00  0.00000000E+00  0.00000000E+00
  0.00000000E+00  0.00000000E+00  0.00000000E+00
  0.00000000E+00  0.00000000E+00  0.00000000E+00
  0.00000000E+00  0.00000000E+00  0.00000000E+00
  0.00000000E+00  0.00000000E+00  0.00000000E+00
  0.00000000E+00  0.00000000E+00  0.00000000E+00
  0.00000000E+00  0.00000000E+00  0.00000000E+00
  0.00000000E+00  0.00000000E+00  0.00000000E+00
  0.00000000E+00  0.00000000E+00  0.00000000E+00
  0.00000000E+00  0.00000000E+00  0.00000000E+00
  0.00000000E+00  0.00000000E+00  0.00000000E+00
  0.00000000E+00  0.00000000E+00  0.00000000E+00
  0.00000000E+00  0.00000000E+00  0.00000000E+00
  0.00000000E+00  0.00000000E+00  0.00000000E+00
  0.00000000E+00  0.00000000E+00  0.00000000E+00
  0.00000000E+00  0.00000000E+00  0.00000000E+00
  0.00000000E+00  0.00000000E+00  0.00000000E+00
  0.00000000E+00  0.00000000E+00  0.00000000E+00
  0.00000000E+00  0.00000000E+00  0.00000000E+00
  0.00000000E+00  0.00000000E+00  0.00000000E+00
  0.00000000E+00  0.00000000E+00  0.00000000E+00
  0.00000000E+00  0.00000000E+00  0.00000000E+00
  0.00000000E+00  0.00000000E+00  0.00000000E+00
  0.00000000E+00  0.00000000E+00  0.00000000E+00
