Primitive Cell                          
   1.00000000000000     
     5.0306986345500064    0.0018410634576865   -0.0176422544146933
     2.4972002392391284    7.1500213241759010   -0.5238349628832687
     0.0972482029355422    2.0103462117210409    8.3520013303920155
   Li   C    O    F 
    12     3     9     6
Selective dynamics
Direct
  0.6609781220005644  0.8480286636354037  0.9439207075997231   T   T   T
  0.0139757565618694  0.1645594826004242  0.2773392151934573   T   T   T
  0.3745907419538881  0.6632392851514126  0.8207265717756940   T   T   T
  0.3883044400010789  0.3851342179514745  0.1598105787592701   T   T   T
  0.8372439056319010  0.7072768002671239  0.6241136615244685   T   T   T
  0.6394691424749794  0.1155461288827837  0.4958620770462829   T   T   T
  0.0637963805964716  0.2922878959894035  0.5969454776103333   T   T   T
  0.7869735471366539  0.5924391747917355  0.2758365584170051   T   T   T
  0.9950107081019581  0.4160412732072913  0.9498967709485342   T   T   T
  0.4323773738483894  0.5511034020451007  0.4852823002871958   T   T   T
  0.1901157762545225  0.8110532647528927  0.1512571218612777   T   T   T
  0.4636342931750761  0.2524245058959877  0.8074006732873755   T   T   T
  0.2484859822384209  0.9146427145145779  0.5552068201950533   T   T   T
  0.5922313978161995  0.9895422145698305  0.2144950816182885   T   T   T
  0.0461257015466217  0.0454765192569937  0.8704203296558148   T   T   T
  0.1974991956217664  0.7554655020020462  0.5974319984151677   T   T   T
  0.6515131924836766  0.1331834656407196  0.2516205798074225   T   T   T
  0.2495114756155701  0.8877369529327055  0.9205660021573649   T   T   T
  0.3365933669483354  0.9922351903282092  0.2120502573311214   T   T   T
  0.1025207096962362  0.2022181087782045  0.8309356186916830   T   T   T
  0.7925476769591242  0.8429192876216121  0.1781369331075524   T   T   T
  0.5028803795424750  0.9145233925274781  0.5585560818700301   T   T   T
  0.7918553646608686  0.0464000511080158  0.8591588261444727   T   T   T
  0.0410226136529843  0.0724140499919770  0.5121653798502592   T   T   T
  0.9995249786293599  0.4005596951066863  0.1717055482562344   T   T   T
  0.3671791752610574  0.4389891220974533  0.9353404908699900   T   T   T
  0.7632565142865602  0.6382108147600150  0.8383564858496797   T   T   T
  0.8235246577458568  0.5250407487269371  0.4991951272142643   T   T   T
  0.4206768653237347  0.3221418656966506  0.5848758062548995   T   T   T
  0.4135123501162141  0.5786504167712607  0.2614161145677230   T   T   T
 
  0.00000000E+00  0.00000000E+00  0.00000000E+00
  0.00000000E+00  0.00000000E+00  0.00000000E+00
  0.00000000E+00  0.00000000E+00  0.00000000E+00
  0.00000000E+00  0.00000000E+00  0.00000000E+00
  0.00000000E+00  0.00000000E+00  0.00000000E+00
  0.00000000E+00  0.00000000E+00  0.00000000E+00
  0.00000000E+00  0.00000000E+00  0.00000000E+00
  0.00000000E+00  0.00000000E+00  0.00000000E+00
  0.00000000E+00  0.00000000E+00  0.00000000E+00
  0.00000000E+00  0.00000000E+00  0.00000000E+00
  0.00000000E+00  0.00000000E+00  0.00000000E+00
  0.00000000E+00  0.00000000E+00  0.00000000E+00
  0.00000000E+00  0.00000000E+00  0.00000000E+00
  0.00000000E+00  0.00000000E+00  0.00000000E+00
  0.00000000E+00  0.00000000E+00  0.00000000E+00
  0.00000000E+00  0.00000000E+00  0.00000000E+00
  0.00000000E+00  0.00000000E+00  0.00000000E+00
  0.00000000E+00  0.00000000E+00  0.00000000E+00
  0.00000000E+00  0.00000000E+00  0.00000000E+00
  0.00000000E+00  0.00000000E+00  0.00000000E+00
  0.00000000E+00  0.00000000E+00  0.00000000E+00
  0.00000000E+00  0.00000000E+00  0.00000000E+00
  0.00000000E+00  0.00000000E+00  0.00000000E+00
  0.00000000E+00  0.00000000E+00  0.00000000E+00
  0.00000000E+00  0.00000000E+00  0.00000000E+00
  0.00000000E+00  0.00000000E+00  0.00000000E+00
  0.00000000E+00  0.00000000E+00  0.00000000E+00
  0.00000000E+00  0.00000000E+00  0.00000000E+00
  0.00000000E+00  0.00000000E+00  0.00000000E+00
  0.00000000E+00  0.00000000E+00  0.00000000E+00
