Primitive Cell                          
   1.00000000000000     
     3.1536012783195044   -0.2391965547680294    0.0526749526222564
     0.4323730652528482    3.9368672485274789   -0.0312338192751188
     0.1788940666157686    0.1239515679602563   14.2124034901144860
   Li   C    O    F 
     8     2     6     4
Selective dynamics
Direct
  0.5067593397789238  0.7491997844660219  0.8530820608724881   T   T   T
  0.2711347512567599  0.7630097940036791  0.4577316127912212   T   T   T
  0.0134014032660374  0.2497834754833548  0.9301080178657131   T   T   T
  0.9036653110403634  0.3717757488088580  0.3458642673451706   T   T   T
  0.7288652487432401  0.2369902059963209  0.5422683872087788   T   T   T
  0.4932406602210762  0.2508002155339781  0.1469179391275119   T   T   T
  0.0963346889596366  0.6282242511911420  0.6541357326548294   T   T   T
  0.9865985967339697  0.7502165245166452  0.0698919821342869   T   T   T
  0.3362284676633536  0.8325451901604737  0.2477519789053986   T   T   T
  0.6637715323366535  0.1674548098395263  0.7522480210946014   T   T   T
  0.4737298811276887  0.7323926787200534  0.1635236255748111   T   T   T
  0.5849469252338935  0.3481168854041812  0.6783289843133460   T   T   T
  0.4150530747661065  0.6518831145958188  0.3216710156866469   T   T   T
  0.5262701188723113  0.2676073212799466  0.8364763744251889   T   T   T
  0.1185085467190348  0.1071918458079040  0.2542113094778244   T   T   T
  0.8814914532809581  0.8928081541920960  0.7457886905221756   T   T   T
  0.7605067754787527  0.7511760774779290  0.5364290924274542   T   T   T
  0.0141100304100021  0.7496582518355694  0.9363956192203204   T   T   T
  0.9858899695899979  0.2503417481644306  0.0636043807796796   T   T   T
  0.2394932245212473  0.2488239225220710  0.4635709075725458   T   T   T
 
  0.00000000E+00  0.00000000E+00  0.00000000E+00
  0.00000000E+00  0.00000000E+00  0.00000000E+00
  0.00000000E+00  0.00000000E+00  0.00000000E+00
  0.00000000E+00  0.00000000E+00  0.00000000E+00
  0.00000000E+00  0.00000000E+00  0.00000000E+00
  0.00000000E+00  0.00000000E+00  0.00000000E+00
  0.00000000E+00  0.00000000E+00  0.00000000E+00
  0.00000000E+00  0.00000000E+00  0.00000000E+00
  0.00000000E+00  0.00000000E+00  0.00000000E+00
  0.00000000E+00  0.00000000E+00  0.00000000E+00
  0.00000000E+00  0.00000000E+00  0.00000000E+00
  0.00000000E+00  0.00000000E+00  0.00000000E+00
  0.00000000E+00  0.00000000E+00  0.00000000E+00
  0.00000000E+00  0.00000000E+00  0.00000000E+00
  0.00000000E+00  0.00000000E+00  0.00000000E+00
  0.00000000E+00  0.00000000E+00  0.00000000E+00
  0.00000000E+00  0.00000000E+00  0.00000000E+00
  0.00000000E+00  0.00000000E+00  0.00000000E+00
  0.00000000E+00  0.00000000E+00  0.00000000E+00
  0.00000000E+00  0.00000000E+00  0.00000000E+00
