Primitive Cell                          
   1.00000000000000     
     3.1032795293449569    0.0002907627820797    0.0318970087906550
     0.0017828072498103    4.7120331326478038   -0.0001421337218838
     1.3108597892337113    0.0004582928113947   13.5511390331892514
   Li   C    O    F 
     8     2     6     4
Selective dynamics
Direct
  0.1849031980468254  0.6377146212105913  0.6873845133085581   T   T   T
  0.4606364003558454  0.1582627441488924  0.1504816549238726   T   T   T
  0.9929777833121065  0.6417024631398007  0.0897222970523472   T   T   T
  0.5884670432835861  0.6582409401446299  0.8835583981287698   T   T   T
  0.0558592755738516  0.1416772084998783  0.9443320125442511   T   T   T
  0.3011525063612552  0.5631230996286547  0.4613847080482003   T   T   T
  0.7441384279929508  0.0630968052632213  0.5726493963801289   T   T   T
  0.8626570002158331  0.1378919173954145  0.3466296353932705   T   T   T
  0.6448467778300042  0.1430834209248957  0.7709848112799520   T   T   T
  0.4017743468122887  0.6431101012496683  0.2630610501206334   T   T   T
  0.6521131341529838  0.8694782814464830  0.7604010594099577   T   T   T
  0.4553599752116142  0.7490673988151926  0.1727702638846509   T   T   T
  0.6868918130788373  0.3090934665394514  0.6954229146848405   T   T   T
  0.3961403880032606  0.3694903482437439  0.2736388682803721   T   T   T
  0.5933854548946300  0.2490227052858316  0.8612922423389975   T   T   T
  0.3559849299055671  0.8090802846394780  0.3386123882751093   T   T   T
  0.0542452257186170  0.7437940253432060  0.9568323886080563   T   T   T
  0.7988191050086044  0.3272015514933955  0.4680037766796161   T   T   T
  0.9948464559049128  0.2438159854615805  0.0772359786842145   T   T   T
  0.2470168046973598  0.8271892496945199  0.5660383057231755   T   T   T
 
  0.00000000E+00  0.00000000E+00  0.00000000E+00
  0.00000000E+00  0.00000000E+00  0.00000000E+00
  0.00000000E+00  0.00000000E+00  0.00000000E+00
  0.00000000E+00  0.00000000E+00  0.00000000E+00
  0.00000000E+00  0.00000000E+00  0.00000000E+00
  0.00000000E+00  0.00000000E+00  0.00000000E+00
  0.00000000E+00  0.00000000E+00  0.00000000E+00
  0.00000000E+00  0.00000000E+00  0.00000000E+00
  0.00000000E+00  0.00000000E+00  0.00000000E+00
  0.00000000E+00  0.00000000E+00  0.00000000E+00
  0.00000000E+00  0.00000000E+00  0.00000000E+00
  0.00000000E+00  0.00000000E+00  0.00000000E+00
  0.00000000E+00  0.00000000E+00  0.00000000E+00
  0.00000000E+00  0.00000000E+00  0.00000000E+00
  0.00000000E+00  0.00000000E+00  0.00000000E+00
  0.00000000E+00  0.00000000E+00  0.00000000E+00
  0.00000000E+00  0.00000000E+00  0.00000000E+00
  0.00000000E+00  0.00000000E+00  0.00000000E+00
  0.00000000E+00  0.00000000E+00  0.00000000E+00
  0.00000000E+00  0.00000000E+00  0.00000000E+00
