Primitive Cell                          
   1.00000000000000     
     3.9071282103279685   -0.0494848326619375    0.0973015553160672
    -0.1162843405981832    3.8972307446123935    0.0157917171055154
    -0.5387061565368210   -1.1122316466833571   21.5402523006591551
   Li   C    O    F 
    16     4    12     8
Selective dynamics
Direct
  0.8801711372269594  0.3415048096084234  0.3472812390177680   T   T   T
  0.3938673043683636  0.3493305059160576  0.4482569954555231   T   T   T
  0.3998768339910228  0.8215240652177940  0.3456519916346323   T   T   T
  0.4054686127101519  0.7782595480115972  0.1481178792996545   T   T   T
  0.3892194642670219  0.3101360263886548  0.2485895407260372   T   T   T
  0.8936281674319275  0.8138433844383925  0.2463889459009323   T   T   T
  0.8910054639828573  0.7673676188426342  0.0476854637160429   T   T   T
  0.8859186291780148  0.2989675634927664  0.1496741054263779   T   T   T
  0.8772319847221439  0.8329713805435404  0.8486568030380042   T   T   T
  0.3933724260929452  0.8434093363265873  0.9490043230902003   T   T   T
  0.3969025913297273  0.3122214577365199  0.8469590557378481   T   T   T
  0.4023861919844052  0.2698387423312596  0.6494934103516883   T   T   T
  0.3874428267671775  0.7979475249018009  0.7502801764962825   T   T   T
  0.8919405932320501  0.3016324755529212  0.7480791724486409   T   T   T
  0.8904765646936070  0.2615700465037918  0.5484450567251145   T   T   T
  0.8830178981373678  0.7899338718003861  0.6509968793720020   T   T   T
  0.0106863415873661  0.9576119806415804  0.4161860838884692   T   T   T
  0.2746539307016604  0.1608085008510329  0.0793708880984667   T   T   T
  0.0090868677202280  0.4502203422113027  0.9173680496134509   T   T   T
  0.2730458920857259  0.6535514762447434  0.5805496233199960   T   T   T
  0.8822971247444329  0.2257941069889640  0.4418525445764061   T   T   T
  0.8856694308054500  0.8353099227729786  0.3615158216952423   T   T   T
  0.2788806766682299  0.8327050960344167  0.4371432497279102   T   T   T
  0.4001772140568889  0.2845157625295158  0.1339152112806516   T   T   T
  0.0058817547783150  0.2848196781508179  0.0585368478941035   T   T   T
  0.4031236960298017  0.8923529516287019  0.0538568318587380   T   T   T
  0.8812100639683820  0.7188012304048712  0.9429384700355854   T   T   T
  0.8825277223001677  0.3267930844068445  0.8628377351516221   T   T   T
  0.2778559311245914  0.3258109891756575  0.9380734333605432   T   T   T
  0.3970773546263970  0.7762378296574681  0.6352722171005212   T   T   T
  0.0049612260697174  0.7780737719196082  0.5594932698019903   T   T   T
  0.4020007161837711  0.3855982494640458  0.5549544137708367   T   T   T
  0.3888724808877981  0.3266393191955075  0.3405362634874081   T   T   T
  0.8966596987501632  0.7934714065118555  0.1546877065254790   T   T   T
  0.3940139401410292  0.8089955414049754  0.2474817772336380   T   T   T
  0.8891559552078832  0.3146540015486750  0.2475668206151127   T   T   T
  0.3860287056293217  0.8177407506313301  0.8419958212618894   T   T   T
  0.8939351329136187  0.2845344602697466  0.6561466677040357   T   T   T
  0.3921368181175637  0.2971766649336516  0.7491113477536260   T   T   T
  0.8872707455290652  0.8026131156860927  0.7492149275038216   T   T   T
 
  0.00000000E+00  0.00000000E+00  0.00000000E+00
  0.00000000E+00  0.00000000E+00  0.00000000E+00
  0.00000000E+00  0.00000000E+00  0.00000000E+00
  0.00000000E+00  0.00000000E+00  0.00000000E+00
  0.00000000E+00  0.00000000E+00  0.00000000E+00
  0.00000000E+00  0.00000000E+00  0.00000000E+00
  0.00000000E+00  0.00000000E+00  0.00000000E+00
  0.00000000E+00  0.00000000E+00  0.00000000E+00
  0.00000000E+00  0.00000000E+00  0.00000000E+00
  0.00000000E+00  0.00000000E+00  0.00000000E+00
  0.00000000E+00  0.00000000E+00  0.00000000E+00
  0.00000000E+00  0.00000000E+00  0.00000000E+00
  0.00000000E+00  0.00000000E+00  0.00000000E+00
  0.00000000E+00  0.00000000E+00  0.00000000E+00
  0.00000000E+00  0.00000000E+00  0.00000000E+00
  0.00000000E+00  0.00000000E+00  0.00000000E+00
  0.00000000E+00  0.00000000E+00  0.00000000E+00
  0.00000000E+00  0.00000000E+00  0.00000000E+00
  0.00000000E+00  0.00000000E+00  0.00000000E+00
  0.00000000E+00  0.00000000E+00  0.00000000E+00
  0.00000000E+00  0.00000000E+00  0.00000000E+00
  0.00000000E+00  0.00000000E+00  0.00000000E+00
  0.00000000E+00  0.00000000E+00  0.00000000E+00
  0.00000000E+00  0.00000000E+00  0.00000000E+00
  0.00000000E+00  0.00000000E+00  0.00000000E+00
  0.00000000E+00  0.00000000E+00  0.00000000E+00
  0.00000000E+00  0.00000000E+00  0.00000000E+00
  0.00000000E+00  0.00000000E+00  0.00000000E+00
  0.00000000E+00  0.00000000E+00  0.00000000E+00
  0.00000000E+00  0.00000000E+00  0.00000000E+00
  0.00000000E+00  0.00000000E+00  0.00000000E+00
  0.00000000E+00  0.00000000E+00  0.00000000E+00
  0.00000000E+00  0.00000000E+00  0.00000000E+00
  0.00000000E+00  0.00000000E+00  0.00000000E+00
  0.00000000E+00  0.00000000E+00  0.00000000E+00
  0.00000000E+00  0.00000000E+00  0.00000000E+00
  0.00000000E+00  0.00000000E+00  0.00000000E+00
  0.00000000E+00  0.00000000E+00  0.00000000E+00
  0.00000000E+00  0.00000000E+00  0.00000000E+00
  0.00000000E+00  0.00000000E+00  0.00000000E+00
