Primitive Cell                          
   1.00000000000000     
     4.9940911272789927   -0.1717285144043025   -0.1258740656214756
     0.5233243493184497    8.4444429198354509   -1.2423870250561218
     0.4306179415031871    1.7434023710886972   10.4378890504002033
   Li   C    O    F 
    16     4    12     8
Selective dynamics
Direct
  0.3476502295234383  0.9956622127533521  0.2691837128051588   T   T   T
  0.8476014287427773  0.4866347923791778  0.2689428481200551   T   T   T
  0.8270776206941548  0.1406800465303775  0.1476916943904101   T   T   T
  0.3272821302222439  0.6401553236994744  0.1546060041757897   T   T   T
  0.3259674882172519  0.3474249650036896  0.6569999791506760   T   T   T
  0.8252952142752932  0.8462497708079297  0.6519384704028539   T   T   T
  0.8476104112946743  0.4959668777783932  0.7692952098717925   T   T   T
  0.3475489067917295  0.9870012665743459  0.7688205854092800   T   T   T
  0.8270949531909011  0.1405420924479657  0.6545002035244636   T   T   T
  0.3271450013367030  0.6410661959154638  0.6477877269490051   T   T   T
  0.8457345106281977  0.4900477162449093  0.5370106032368867   T   T   T
  0.3457113554569986  0.9996439820507632  0.5375095828524863   T   T   T
  0.8261549526126402  0.8469978315342246  0.1569652293184873   T   T   T
  0.3253371436889907  0.3458985849188068  0.1519929346261364   T   T   T
  0.8456536954929987  0.4991531923422130  0.0376278462855382   T   T   T
  0.3457271199308849  0.9896118318073306  0.0369106660539984   T   T   T
  0.8368016828526308  0.9835527516794471  0.9020193023915439   T   T   T
  0.3362361048992568  0.4990605448108738  0.9022834509327780   T   T   T
  0.8362925541122266  0.9991459482165865  0.4021498919226687   T   T   T
  0.3369095527154897  0.4835684446887711  0.4020828897564073   T   T   T
  0.9668388559375956  0.9854345515872609  0.7940924018361812   T   T   T
  0.4658799478540558  0.4955627833357568  0.7942891061515027   T   T   T
  0.9658216972708473  0.9952778697789242  0.2941553142882967   T   T   T
  0.4668134390981535  0.4851009812687579  0.2942429258269712   T   T   T
  0.5811441984653740  0.9767493855586267  0.9023830325297837   T   T   T
  0.0798215914240856  0.5031028097564416  0.9027516917013756   T   T   T
  0.9644596659882509  0.9885114169281692  0.0090463688629043   T   T   T
  0.4649079128891103  0.4976577764664114  0.0093585620565193   T   T   T
  0.4645448039932418  0.4889303730350889  0.5091139750714007   T   T   T
  0.5799197022417246  0.0033700829360797  0.4026246378214324   T   T   T
  0.0812313687194930  0.4768267103530235  0.4025410479586782   T   T   T
  0.9649750795438834  0.9979062029103787  0.5091815010342984   T   T   T
  0.4523390390906030  0.1481599489883436  0.6559410112008024   T   T   T
  0.9533906220410131  0.6474284064735585  0.6462434165704494   T   T   T
  0.9515199570431534  0.3358189870972907  0.6591393050584315   T   T   T
  0.4523270769930647  0.8360646894867259  0.6496536079627262   T   T   T
  0.4533378926344298  0.1470886945308081  0.1460933940171714   T   T   T
  0.9525463357079360  0.6477493577462425  0.1560572322344242   T   T   T
  0.9524036769817315  0.3356621504788535  0.1497649929246805   T   T   T
  0.4516329659873293  0.8354654719598997  0.1591149841882142   T   T   T
 
  0.00000000E+00  0.00000000E+00  0.00000000E+00
  0.00000000E+00  0.00000000E+00  0.00000000E+00
  0.00000000E+00  0.00000000E+00  0.00000000E+00
  0.00000000E+00  0.00000000E+00  0.00000000E+00
  0.00000000E+00  0.00000000E+00  0.00000000E+00
  0.00000000E+00  0.00000000E+00  0.00000000E+00
  0.00000000E+00  0.00000000E+00  0.00000000E+00
  0.00000000E+00  0.00000000E+00  0.00000000E+00
  0.00000000E+00  0.00000000E+00  0.00000000E+00
  0.00000000E+00  0.00000000E+00  0.00000000E+00
  0.00000000E+00  0.00000000E+00  0.00000000E+00
  0.00000000E+00  0.00000000E+00  0.00000000E+00
  0.00000000E+00  0.00000000E+00  0.00000000E+00
  0.00000000E+00  0.00000000E+00  0.00000000E+00
  0.00000000E+00  0.00000000E+00  0.00000000E+00
  0.00000000E+00  0.00000000E+00  0.00000000E+00
  0.00000000E+00  0.00000000E+00  0.00000000E+00
  0.00000000E+00  0.00000000E+00  0.00000000E+00
  0.00000000E+00  0.00000000E+00  0.00000000E+00
  0.00000000E+00  0.00000000E+00  0.00000000E+00
  0.00000000E+00  0.00000000E+00  0.00000000E+00
  0.00000000E+00  0.00000000E+00  0.00000000E+00
  0.00000000E+00  0.00000000E+00  0.00000000E+00
  0.00000000E+00  0.00000000E+00  0.00000000E+00
  0.00000000E+00  0.00000000E+00  0.00000000E+00
  0.00000000E+00  0.00000000E+00  0.00000000E+00
  0.00000000E+00  0.00000000E+00  0.00000000E+00
  0.00000000E+00  0.00000000E+00  0.00000000E+00
  0.00000000E+00  0.00000000E+00  0.00000000E+00
  0.00000000E+00  0.00000000E+00  0.00000000E+00
  0.00000000E+00  0.00000000E+00  0.00000000E+00
  0.00000000E+00  0.00000000E+00  0.00000000E+00
  0.00000000E+00  0.00000000E+00  0.00000000E+00
  0.00000000E+00  0.00000000E+00  0.00000000E+00
  0.00000000E+00  0.00000000E+00  0.00000000E+00
  0.00000000E+00  0.00000000E+00  0.00000000E+00
  0.00000000E+00  0.00000000E+00  0.00000000E+00
  0.00000000E+00  0.00000000E+00  0.00000000E+00
  0.00000000E+00  0.00000000E+00  0.00000000E+00
  0.00000000E+00  0.00000000E+00  0.00000000E+00
