Primitive Cell                          
   1.00000000000000     
     2.9130743531795291    0.2049629278638343   -0.1463663091656385
     0.0170896609046340    8.1411215205172134   -0.3117153324344640
    -0.5260937234215172   -0.5996629574232869   12.0655501197346204
   Li   C    O    F 
    12     3     9     6
Selective dynamics
Direct
  0.3952938160938473  0.4706937121098207  0.7681382090756586   T   T   T
  0.8481451094511669  0.8197784231905700  0.7568277389390587   T   T   T
  0.1670690302850559  0.9624337953076321  0.1834919533523021   T   T   T
  0.8086401562950840  0.6175218470852286  0.1730011283407151   T   T   T
  0.9843376026547972  0.3937682206148665  0.9681983762135999   T   T   T
  0.3031351497872592  0.7319391553953096  0.9726128289437455   T   T   T
  0.8318131059438016  0.3427171772681490  0.5625248156964631   T   T   T
  0.7610099857189425  0.7888773823941406  0.4069130068930917   T   T   T
  0.5769783484716058  0.0514564698172109  0.9494694268900048   T   T   T
  0.5874473454227882  0.2756738702467416  0.1726945390087167   T   T   T
  0.3230865960115281  0.0165454320654703  0.5784121715855406   T   T   T
  0.2735394167215333  0.4610122297999055  0.3667648425970285   T   T   T
  0.9411770644963369  0.1751485163617232  0.7716184416973775   T   T   T
  0.3188578027932323  0.6499331309587930  0.5817394726782581   T   T   T
  0.7354299099136838  0.1201371963422346  0.3802192332200320   T   T   T
  0.3094849526616841  0.7748146316571649  0.5218786921506364   T   T   T
  0.8981678304438176  0.0383345309418317  0.7099329102859926   T   T   T
  0.3527167755564236  0.6741943970726467  0.6904214344383348   T   T   T
  0.7576047674149038  0.9796477107173303  0.3211167313454695   T   T   T
  0.6867386823367241  0.2591619210000360  0.3344755728065536   T   T   T
  0.0124465794122912  0.1760401849244388  0.8798226625871308   T   T   T
  0.9127693893913573  0.3154797965676579  0.7253885064912780   T   T   T
  0.7661589111165341  0.1224458366335242  0.4895328768438318   T   T   T
  0.2961100907033583  0.4998974237385667  0.5353851014917765   T   T   T
  0.7542383793052281  0.8333786027774863  0.9055672298881277   T   T   T
  0.0356840159552689  0.3971678208901110  0.1231213500138537   T   T   T
  0.5974752962247152  0.0678441430788581  0.1007612278987793   T   T   T
  0.4361260449647801  0.5126736205078544  0.9210732874871255   T   T   T
  0.2568807122531425  0.7401198105720539  0.1243400633732321   T   T   T
  0.7354507746988048  0.5934360439413879  0.3201140740744890   T   T   T
 
  0.00000000E+00  0.00000000E+00  0.00000000E+00
  0.00000000E+00  0.00000000E+00  0.00000000E+00
  0.00000000E+00  0.00000000E+00  0.00000000E+00
  0.00000000E+00  0.00000000E+00  0.00000000E+00
  0.00000000E+00  0.00000000E+00  0.00000000E+00
  0.00000000E+00  0.00000000E+00  0.00000000E+00
  0.00000000E+00  0.00000000E+00  0.00000000E+00
  0.00000000E+00  0.00000000E+00  0.00000000E+00
  0.00000000E+00  0.00000000E+00  0.00000000E+00
  0.00000000E+00  0.00000000E+00  0.00000000E+00
  0.00000000E+00  0.00000000E+00  0.00000000E+00
  0.00000000E+00  0.00000000E+00  0.00000000E+00
  0.00000000E+00  0.00000000E+00  0.00000000E+00
  0.00000000E+00  0.00000000E+00  0.00000000E+00
  0.00000000E+00  0.00000000E+00  0.00000000E+00
  0.00000000E+00  0.00000000E+00  0.00000000E+00
  0.00000000E+00  0.00000000E+00  0.00000000E+00
  0.00000000E+00  0.00000000E+00  0.00000000E+00
  0.00000000E+00  0.00000000E+00  0.00000000E+00
  0.00000000E+00  0.00000000E+00  0.00000000E+00
  0.00000000E+00  0.00000000E+00  0.00000000E+00
  0.00000000E+00  0.00000000E+00  0.00000000E+00
  0.00000000E+00  0.00000000E+00  0.00000000E+00
  0.00000000E+00  0.00000000E+00  0.00000000E+00
  0.00000000E+00  0.00000000E+00  0.00000000E+00
  0.00000000E+00  0.00000000E+00  0.00000000E+00
  0.00000000E+00  0.00000000E+00  0.00000000E+00
  0.00000000E+00  0.00000000E+00  0.00000000E+00
  0.00000000E+00  0.00000000E+00  0.00000000E+00
  0.00000000E+00  0.00000000E+00  0.00000000E+00
