Primitive Cell                          
   1.00000000000000     
     3.1229761360295831   -0.4519111252263244    0.0652546394414208
     0.6971580748862028    3.8266191815073061    0.7176564952908492
     0.4988346349227765    1.0608253559812220   14.7017793881483012
   Li   C    O    F 
     8     2     6     4
Selective dynamics
Direct
  0.9797715721897475  0.8902396417792104  0.8530809994761626   T   T   T
  0.2335708539896260  0.2803008666198537  0.4578517454369404   T   T   T
  0.4519314530396201  0.3160895162881232  0.9312639273756673   T   T   T
  0.5648189776207744  0.7923838053821441  0.3435889296196279   T   T   T
  0.7664291460103740  0.7196991333801463  0.5421482545630596   T   T   T
  0.0202284278102525  0.1097603582207896  0.1469190005238374   T   T   T
  0.4351810223792256  0.2076161946178559  0.6564110703803721   T   T   T
  0.5480685469603799  0.6839104837118768  0.0687360726243398   T   T   T
  0.1569599801920134  0.4275547836200602  0.2473451572745660   T   T   T
  0.8430400198079866  0.5724452163799398  0.7526548427254269   T   T   T
  0.0376067610901529  0.6112159775324528  0.1640250054389867   T   T   T
  0.9371533263249958  0.4662044774430498  0.6780182391064997   T   T   T
  0.0628466736750042  0.5337955225569502  0.3219817608935003   T   T   T
  0.9623932389098471  0.3887840224675543  0.8359749945610133   T   T   T
  0.3730912304534257  0.1458484145089400  0.2524395399939294   T   T   T
  0.6269087695465743  0.8541515854910600  0.7475604600060706   T   T   T
  0.7251922548434209  0.2123516121828359  0.5366506951918595   T   T   T
  0.4435881065341860  0.8107874051590471  0.9378493309573486   T   T   T
  0.5564118934658211  0.1892125948409529  0.0621506690426514   T   T   T
  0.2748077451565791  0.7876483878171641  0.4633493048081405   T   T   T
 
  0.00000000E+00  0.00000000E+00  0.00000000E+00
  0.00000000E+00  0.00000000E+00  0.00000000E+00
  0.00000000E+00  0.00000000E+00  0.00000000E+00
  0.00000000E+00  0.00000000E+00  0.00000000E+00
  0.00000000E+00  0.00000000E+00  0.00000000E+00
  0.00000000E+00  0.00000000E+00  0.00000000E+00
  0.00000000E+00  0.00000000E+00  0.00000000E+00
  0.00000000E+00  0.00000000E+00  0.00000000E+00
  0.00000000E+00  0.00000000E+00  0.00000000E+00
  0.00000000E+00  0.00000000E+00  0.00000000E+00
  0.00000000E+00  0.00000000E+00  0.00000000E+00
  0.00000000E+00  0.00000000E+00  0.00000000E+00
  0.00000000E+00  0.00000000E+00  0.00000000E+00
  0.00000000E+00  0.00000000E+00  0.00000000E+00
  0.00000000E+00  0.00000000E+00  0.00000000E+00
  0.00000000E+00  0.00000000E+00  0.00000000E+00
  0.00000000E+00  0.00000000E+00  0.00000000E+00
  0.00000000E+00  0.00000000E+00  0.00000000E+00
  0.00000000E+00  0.00000000E+00  0.00000000E+00
  0.00000000E+00  0.00000000E+00  0.00000000E+00
