Primitive Cell                          
   1.00000000000000     
     6.2370307663428948   -0.0763167454266819   -0.1013488049650861
    -0.1141973460377027    6.8068797480366179    1.3337375872120218
     0.0359334972784063    4.2689847569872583    5.5680428147076233
   Li   C    O    F 
     8     2     6     4
Selective dynamics
Direct
  0.6526407608259461  0.2296705100157155  0.0588400760706165   T   T   T
  0.1521580019255566  0.2267489298300873  0.0708882090605272   T   T   T
  0.9024260709619867  0.6554062844109652  0.5275817934850835   T   T   T
  0.6420399155727594  0.7500931403995068  0.8538596737128756   T   T   T
  0.8903030058088532  0.4024442217514803  0.3117826136403252   T   T   T
  0.3799774641002713  0.4127147548562249  0.3038387362185020   T   T   T
  0.1419999077678256  0.8743274610605383  0.7281423164455347   T   T   T
  0.3990509199469585  0.6611668326437581  0.5245498730079987   T   T   T
  0.8934502089737606  0.0479304783735515  0.9019137955913834   T   T   T
  0.3888305240696255  0.0553774796133624  0.8946345936046143   T   T   T
  0.8768140284616877  0.3042179789643384  0.6436264898797930   T   T   T
  0.3900681622786522  0.8327659350086165  0.9432164873867777   T   T   T
  0.9002506819434473  0.0108100827803668  0.1145040901806880   T   T   T
  0.3983868655679004  0.0158854490062978  0.1087667892074577   T   T   T
  0.9033597630418058  0.8241359499043952  0.9531098123368054   T   T   T
  0.3766199999064952  0.3130056048658787  0.6369024812734452   T   T   T
  0.6535284126735590  0.6443148886548542  0.6821131760813017   T   T   T
  0.1522425570112347  0.6237707350551034  0.7094236657186386   T   T   T
  0.6309163587113744  0.3241649932006112  0.2416074163118793   T   T   T
  0.1317391900094194  0.2328500205516946  0.3297137260028009   T   T   T
 
  0.00000000E+00  0.00000000E+00  0.00000000E+00
  0.00000000E+00  0.00000000E+00  0.00000000E+00
  0.00000000E+00  0.00000000E+00  0.00000000E+00
  0.00000000E+00  0.00000000E+00  0.00000000E+00
  0.00000000E+00  0.00000000E+00  0.00000000E+00
  0.00000000E+00  0.00000000E+00  0.00000000E+00
  0.00000000E+00  0.00000000E+00  0.00000000E+00
  0.00000000E+00  0.00000000E+00  0.00000000E+00
  0.00000000E+00  0.00000000E+00  0.00000000E+00
  0.00000000E+00  0.00000000E+00  0.00000000E+00
  0.00000000E+00  0.00000000E+00  0.00000000E+00
  0.00000000E+00  0.00000000E+00  0.00000000E+00
  0.00000000E+00  0.00000000E+00  0.00000000E+00
  0.00000000E+00  0.00000000E+00  0.00000000E+00
  0.00000000E+00  0.00000000E+00  0.00000000E+00
  0.00000000E+00  0.00000000E+00  0.00000000E+00
  0.00000000E+00  0.00000000E+00  0.00000000E+00
  0.00000000E+00  0.00000000E+00  0.00000000E+00
  0.00000000E+00  0.00000000E+00  0.00000000E+00
  0.00000000E+00  0.00000000E+00  0.00000000E+00
