Primitive Cell                          
   1.00000000000000     
     5.0283913099124922   -0.2578656137987974   -0.0601650427989817
    -2.2421150310488551    6.4492788472538969    0.2834897126407140
    -0.1090397905717921   -1.4878725757858300    5.5001227706926290
   Li   C    O    F 
     6     2     6     2
Selective dynamics
Direct
  0.3474895153731694  0.8430578929315544  0.8122746146613764   T   T   T
  0.6525104846268306  0.1569421070684456  0.1877253853386236   T   T   T
  0.0073956533622805  0.1224242377015585  0.8515698416765005   T   T   T
  0.8546778131926231  0.6347081769929162  0.5281154120493312   T   T   T
  0.9926043466377195  0.8775757622984415  0.1484301583234995   T   T   T
  0.1453221868073769  0.3652918230070838  0.4718845879506617   T   T   T
  0.4369450049382593  0.7490936357432858  0.3112457360688978   T   T   T
  0.5630549950617407  0.2509063642567142  0.6887542639311022   T   T   T
  0.6744174360024502  0.7212250448168334  0.2994115060507028   T   T   T
  0.3255825639975498  0.2787749551831666  0.7005884939492972   T   T   T
  0.6283465833639426  0.1414020607279838  0.8280418696029699   T   T   T
  0.2589828336816353  0.6699502042628751  0.4641460670895725   T   T   T
  0.3716534166360574  0.8585979392720162  0.1719581303970372   T   T   T
  0.7410171663183647  0.3300497957371249  0.5358539329104204   T   T   T
  0.9648369322333323  0.8312209596766351  0.8148251174157224   T   T   T
  0.0351630677666677  0.1687790403233649  0.1851748825842776   T   T   T
 
  0.00000000E+00  0.00000000E+00  0.00000000E+00
  0.00000000E+00  0.00000000E+00  0.00000000E+00
  0.00000000E+00  0.00000000E+00  0.00000000E+00
  0.00000000E+00  0.00000000E+00  0.00000000E+00
  0.00000000E+00  0.00000000E+00  0.00000000E+00
  0.00000000E+00  0.00000000E+00  0.00000000E+00
  0.00000000E+00  0.00000000E+00  0.00000000E+00
  0.00000000E+00  0.00000000E+00  0.00000000E+00
  0.00000000E+00  0.00000000E+00  0.00000000E+00
  0.00000000E+00  0.00000000E+00  0.00000000E+00
  0.00000000E+00  0.00000000E+00  0.00000000E+00
  0.00000000E+00  0.00000000E+00  0.00000000E+00
  0.00000000E+00  0.00000000E+00  0.00000000E+00
  0.00000000E+00  0.00000000E+00  0.00000000E+00
  0.00000000E+00  0.00000000E+00  0.00000000E+00
  0.00000000E+00  0.00000000E+00  0.00000000E+00
