Primitive Cell                          
   1.00000000000000     
     4.9360432132767285    0.0338845122640343    0.0263004781103278
     0.0420729766620837    5.9063778009280314   -0.4086329119557957
     2.3403633960303978    1.8730149446420379    5.4435669633995838
   Li   C    O    F 
     6     2     6     2
Selective dynamics
Direct
  0.7479412289557956  0.0472095703425524  0.8094999524422164   T   T   T
  0.2520587710442044  0.9527904296574476  0.1905000475577836   T   T   T
  0.7613066384540801  0.2442310196799298  0.1610011374897695   T   T   T
  0.2386933615459199  0.7557689803200702  0.8389988625102305   T   T   T
  0.6874411793694080  0.6673285400871194  0.3205391902817780   T   T   T
  0.3125588206305920  0.3326714599128806  0.6794608097182220   T   T   T
  0.7904039986060951  0.5745253857873465  0.7368822251202403   T   T   T
  0.2095960013939049  0.4254746142126535  0.2631177748797597   T   T   T
  0.4385359112748972  0.4159047489583756  0.3205800377376917   T   T   T
  0.5614640887251028  0.5840952510416244  0.6794199622623083   T   T   T
  0.8870988156774615  0.3720531537608522  0.7965654292399620   T   T   T
  0.9202626724083132  0.7627992939037540  0.7336891102955434   T   T   T
  0.1129011843225385  0.6279468462391478  0.2034345707600380   T   T   T
  0.0797373275916868  0.2372007060962389  0.2663108897044566   T   T   T
  0.6428909913439398  0.9539768757113762  0.1615764951372967   T   T   T
  0.3571090086560602  0.0460231242886238  0.8384235048627033   T   T   T
 
  0.00000000E+00  0.00000000E+00  0.00000000E+00
  0.00000000E+00  0.00000000E+00  0.00000000E+00
  0.00000000E+00  0.00000000E+00  0.00000000E+00
  0.00000000E+00  0.00000000E+00  0.00000000E+00
  0.00000000E+00  0.00000000E+00  0.00000000E+00
  0.00000000E+00  0.00000000E+00  0.00000000E+00
  0.00000000E+00  0.00000000E+00  0.00000000E+00
  0.00000000E+00  0.00000000E+00  0.00000000E+00
  0.00000000E+00  0.00000000E+00  0.00000000E+00
  0.00000000E+00  0.00000000E+00  0.00000000E+00
  0.00000000E+00  0.00000000E+00  0.00000000E+00
  0.00000000E+00  0.00000000E+00  0.00000000E+00
  0.00000000E+00  0.00000000E+00  0.00000000E+00
  0.00000000E+00  0.00000000E+00  0.00000000E+00
  0.00000000E+00  0.00000000E+00  0.00000000E+00
  0.00000000E+00  0.00000000E+00  0.00000000E+00
