Primitive Cell                          
   1.00000000000000     
     2.9801910078836431   -0.1119447856016418   -0.3101266074553431
    -0.7227074780318948   10.2739465138089585   -0.3089893993072639
    -1.5461926244266895   -4.9263387928900775    5.6712148732669760
   Li   C    O    F 
     6     2     6     2
Selective dynamics
Direct
  0.2861545564356760  0.2467613774753232  0.7817355971114992   T   T   T
  0.7138454435643169  0.7532386225246768  0.2182644028885008   T   T   T
  0.7590754035525578  0.4296527423442242  0.6402924776247545   T   T   T
  0.5998804047054875  0.9333383710484071  0.7287026668683225   T   T   T
  0.2409245964474422  0.5703472576557758  0.3597075223752455   T   T   T
  0.4001195952945125  0.0666616289515929  0.2712973331316704   T   T   T
  0.4355180408699653  0.2552076971219037  0.1064590180136662   T   T   T
  0.5644819591300347  0.7447923028780963  0.8935409819863267   T   T   T
  0.4928086191434318  0.2595546249501552  0.2805934754163033   T   T   T
  0.5071913808565682  0.7404453750498448  0.7194065245837038   T   T   T
  0.4462060441303777  0.5944036067067557  0.8440886056241439   T   T   T
  0.2476624823743947  0.1001945691565709  0.8673755284152946   T   T   T
  0.5537939558696223  0.4055963932932443  0.1559113943758632   T   T   T
  0.7523375176256053  0.8998054308434291  0.1326244715847054   T   T   T
  0.6823770775489848  0.2386080015879131  0.6290099895457502   T   T   T
  0.3176229224510152  0.7613919984120798  0.3709900104542498   T   T   T
 
  0.00000000E+00  0.00000000E+00  0.00000000E+00
  0.00000000E+00  0.00000000E+00  0.00000000E+00
  0.00000000E+00  0.00000000E+00  0.00000000E+00
  0.00000000E+00  0.00000000E+00  0.00000000E+00
  0.00000000E+00  0.00000000E+00  0.00000000E+00
  0.00000000E+00  0.00000000E+00  0.00000000E+00
  0.00000000E+00  0.00000000E+00  0.00000000E+00
  0.00000000E+00  0.00000000E+00  0.00000000E+00
  0.00000000E+00  0.00000000E+00  0.00000000E+00
  0.00000000E+00  0.00000000E+00  0.00000000E+00
  0.00000000E+00  0.00000000E+00  0.00000000E+00
  0.00000000E+00  0.00000000E+00  0.00000000E+00
  0.00000000E+00  0.00000000E+00  0.00000000E+00
  0.00000000E+00  0.00000000E+00  0.00000000E+00
  0.00000000E+00  0.00000000E+00  0.00000000E+00
  0.00000000E+00  0.00000000E+00  0.00000000E+00
