Primitive Cell                          
   1.00000000000000     
     9.0778288064154697    0.0000000000000000    0.0000000000000000
     0.0000000000000000    3.1661377818754364    0.0204875283036281
     0.0000000000000000    0.9538113315844076    5.5790609319288293
   Li   C    O    F 
     6     2     6     2
Selective dynamics
Direct
  0.0356739215113535  0.7011334390564770  0.1975943849896353   T   T   T
  0.3445799952110775  0.9092599503961196  0.4835039294587133   T   T   T
  0.0828178572030822  0.3689422681094356  0.7643279319103371   T   T   T
  0.5356739215113535  0.2988665609435230  0.8024056150103647   T   T   T
  0.8445799952110775  0.0907400496038804  0.5164960705412867   T   T   T
  0.5828178572030822  0.6310577318905644  0.2356720680896629   T   T   T
  0.8016173098705295  0.1798603087361599  0.0180010091873015   T   T   T
  0.3016173098705295  0.8201396912638401  0.9819989908126985   T   T   T
  0.7195609439800918  0.1508832846258699  0.2120834134379166   T   T   T
  0.2195609439800918  0.8491167153741301  0.7879165865620834   T   T   T
  0.2422285641172195  0.8645991456854674  0.1819735001566940   T   T   T
  0.7422285641172195  0.1354008543145326  0.8180264998433060   T   T   T
  0.9428798430388881  0.2446780052531139  0.0360832566563829   T   T   T
  0.4428798430388881  0.7553219947468861  0.9639167433436171   T   T   T
  0.9649396007442377  0.5892920689536254  0.5050125148712326   T   T   T
  0.4649396007442377  0.4107079310463746  0.4949874851287674   T   T   T
 
  0.00000000E+00  0.00000000E+00  0.00000000E+00
  0.00000000E+00  0.00000000E+00  0.00000000E+00
  0.00000000E+00  0.00000000E+00  0.00000000E+00
  0.00000000E+00  0.00000000E+00  0.00000000E+00
  0.00000000E+00  0.00000000E+00  0.00000000E+00
  0.00000000E+00  0.00000000E+00  0.00000000E+00
  0.00000000E+00  0.00000000E+00  0.00000000E+00
  0.00000000E+00  0.00000000E+00  0.00000000E+00
  0.00000000E+00  0.00000000E+00  0.00000000E+00
  0.00000000E+00  0.00000000E+00  0.00000000E+00
  0.00000000E+00  0.00000000E+00  0.00000000E+00
  0.00000000E+00  0.00000000E+00  0.00000000E+00
  0.00000000E+00  0.00000000E+00  0.00000000E+00
  0.00000000E+00  0.00000000E+00  0.00000000E+00
  0.00000000E+00  0.00000000E+00  0.00000000E+00
  0.00000000E+00  0.00000000E+00  0.00000000E+00
