Primitive Cell                          
   1.00000000000000     
     2.9271026294554710    5.5564944601274089   -0.0052532810131450
    -2.9271026294554710    5.5564944601274089   -0.0052532810131450
     0.0000000000000000    0.0165925783441760    5.0788776552789088
   Li   C    O    F 
     6     2     6     2
Selective dynamics
Direct
  0.0997709652216230  0.5803867383537238  0.1878251708756764   T   T   T
  0.4196132616462762  0.9002290347783770  0.8121748291243236   T   T   T
  0.5803867383537238  0.0997709652216230  0.1878251708756764   T   T   T
  0.9002290347783770  0.4196132616462762  0.8121748291243236   T   T   T
  0.9124238368798032  0.9124238368798032  0.6727194850363887   T   T   T
  0.0875761631201968  0.0875761631201968  0.3272805149636113   T   T   T
  0.3531824840307678  0.3531824840307678  0.6800568447279360   T   T   T
  0.6468175159692322  0.6468175159692322  0.3199431552720640   T   T   T
  0.8463439571520652  0.4599965815577960  0.1907271854894574   T   T   T
  0.6392770331430100  0.6392770331430100  0.5720818793630258   T   T   T
  0.3607229668569900  0.3607229668569900  0.4279181206369742   T   T   T
  0.4599965815577960  0.8463439571520652  0.1907271854894574   T   T   T
  0.1536560428479348  0.5400034184422040  0.8092728145105426   T   T   T
  0.5400034184422040  0.1536560428479348  0.8092728145105426   T   T   T
  0.9169456299143661  0.9169456299143661  0.2956481222964271   T   T   T
  0.0830543700856339  0.0830543700856339  0.7043518777035729   T   T   T
 
  0.00000000E+00  0.00000000E+00  0.00000000E+00
  0.00000000E+00  0.00000000E+00  0.00000000E+00
  0.00000000E+00  0.00000000E+00  0.00000000E+00
  0.00000000E+00  0.00000000E+00  0.00000000E+00
  0.00000000E+00  0.00000000E+00  0.00000000E+00
  0.00000000E+00  0.00000000E+00  0.00000000E+00
  0.00000000E+00  0.00000000E+00  0.00000000E+00
  0.00000000E+00  0.00000000E+00  0.00000000E+00
  0.00000000E+00  0.00000000E+00  0.00000000E+00
  0.00000000E+00  0.00000000E+00  0.00000000E+00
  0.00000000E+00  0.00000000E+00  0.00000000E+00
  0.00000000E+00  0.00000000E+00  0.00000000E+00
  0.00000000E+00  0.00000000E+00  0.00000000E+00
  0.00000000E+00  0.00000000E+00  0.00000000E+00
  0.00000000E+00  0.00000000E+00  0.00000000E+00
  0.00000000E+00  0.00000000E+00  0.00000000E+00
