Primitive Cell                          
   1.00000000000000     
     5.6463692954295484   -0.1469061724508273   -0.0239660632600360
     2.8086625076863529    2.6475475331959655    0.7154539687515674
     2.7545681206655530    1.7062299885686874   13.6241697610038628
   Li   C    O    F 
     9     3     9     3
Selective dynamics
Direct
  0.8541578242348464  0.0397081290160628  0.1274626430592107   T   T   T
  0.4274360251334102  0.2366901468985745  0.2938555222060160   T   T   T
  0.1868787218369548  0.7181202015689507  0.7861216516269280   T   T   T
  0.7235022842845069  0.7067966428466619  0.7956659138925701   T   T   T
  0.4718268265544907  0.4737448205885286  0.4504732160099962   T   T   T
  0.3812251340783277  0.0629393426135323  0.1158828674815524   T   T   T
  0.0052156228089473  0.4601507608985713  0.4593308856773675   T   T   T
  0.5760311802469289  0.6534171589823927  0.6198707281078200   T   T   T
  0.2938400711996607  0.8824842297447972  0.9579613857718243   T   T   T
  0.6506553050832906  0.2011992019343083  0.9150874666074102   T   T   T
  0.0352678751282340  0.0822102271618590  0.2500984509760187   T   T   T
  0.9334784212027643  0.9545052280876689  0.5825854406947499   T   T   T
  0.7171269473615851  0.1580239243470132  0.8229797205326790   T   T   T
  0.7916579698174644  0.2709277132251344  0.9563279104700655   T   T   T
  0.0720026407409549  0.0378267983224561  0.6208315725294042   T   T   T
  0.3159161102483665  0.8739451711834931  0.2924493578563627   T   T   T
  0.8851948666056302  0.4792549651378195  0.1611681259379054   T   T   T
  0.4139886236368184  0.2335156107776371  0.9577595162447423   T   T   T
  0.6874763539881741  0.0102650820795276  0.6241861272027904   T   T   T
  0.9294062762587174  0.8576447734666814  0.2889336395507840   T   T   T
  0.0062355096079543  0.8903259657661593  0.4933217559359591   T   T   T
  0.2176759826743933  0.1773273090650278  0.7954597841713706   T   T   T
  0.3576240237514128  0.5767826870509296  0.1195347354348897   T   T   T
  0.4973535658869395  0.9473247470316295  0.4535605383025185   T   T   T
 
  0.00000000E+00  0.00000000E+00  0.00000000E+00
  0.00000000E+00  0.00000000E+00  0.00000000E+00
  0.00000000E+00  0.00000000E+00  0.00000000E+00
  0.00000000E+00  0.00000000E+00  0.00000000E+00
  0.00000000E+00  0.00000000E+00  0.00000000E+00
  0.00000000E+00  0.00000000E+00  0.00000000E+00
  0.00000000E+00  0.00000000E+00  0.00000000E+00
  0.00000000E+00  0.00000000E+00  0.00000000E+00
  0.00000000E+00  0.00000000E+00  0.00000000E+00
  0.00000000E+00  0.00000000E+00  0.00000000E+00
  0.00000000E+00  0.00000000E+00  0.00000000E+00
  0.00000000E+00  0.00000000E+00  0.00000000E+00
  0.00000000E+00  0.00000000E+00  0.00000000E+00
  0.00000000E+00  0.00000000E+00  0.00000000E+00
  0.00000000E+00  0.00000000E+00  0.00000000E+00
  0.00000000E+00  0.00000000E+00  0.00000000E+00
  0.00000000E+00  0.00000000E+00  0.00000000E+00
  0.00000000E+00  0.00000000E+00  0.00000000E+00
  0.00000000E+00  0.00000000E+00  0.00000000E+00
  0.00000000E+00  0.00000000E+00  0.00000000E+00
  0.00000000E+00  0.00000000E+00  0.00000000E+00
  0.00000000E+00  0.00000000E+00  0.00000000E+00
  0.00000000E+00  0.00000000E+00  0.00000000E+00
  0.00000000E+00  0.00000000E+00  0.00000000E+00
