Primitive Cell                          
   1.00000000000000     
     4.8815114019848611   -0.0048536464420277    0.4216444614800821
    -0.0161153765525179    5.5895134187129516    0.2735256011958591
     1.9045972883150355    1.2374546705379461    6.3403425424951241
   Li   C    O    F 
     6     2     6     2
Selective dynamics
Direct
  0.1969934604487378  0.3401081585853447  0.6247097707616760   T   T   T
  0.5331864724263724  0.2654206266093837  0.9298769106258931   T   T   T
  0.7842822266419347  0.6260926323688025  0.4198699037920832   T   T   T
  0.4160228830664110  0.6611178199654830  0.1573299348154009   T   T   T
  0.0329893710793812  0.9465307358738642  0.9533693010868305   T   T   T
  0.6726920432403816  0.0211178414712165  0.6474821860702633   T   T   T
  0.9855150839484139  0.4324626783135628  0.0577840813458721   T   T   T
  0.2538393899299081  0.8545478686659891  0.5194923702998935   T   T   T
  0.9170101260922223  0.2920328303557511  0.9489766147832484   T   T   T
  0.2165228379896007  0.4027112108397759  0.1050931810057421   T   T   T
  0.1495085355101722  0.6802503215335136  0.4589567169184363   T   T   T
  0.0764528104139472  0.9938518855805256  0.6293415351610250   T   T   T
  0.8206651016966902  0.6072367175269946  0.1172551985780217   T   T   T
  0.5320442102135061  0.8843972472361159  0.4717462259459495   T   T   T
  0.5789250067173839  0.3488275381099299  0.6267825320161862   T   T   T
  0.4165418877080214  0.9382952816496370  0.9505995800025175   T   T   T
 
  0.00000000E+00  0.00000000E+00  0.00000000E+00
  0.00000000E+00  0.00000000E+00  0.00000000E+00
  0.00000000E+00  0.00000000E+00  0.00000000E+00
  0.00000000E+00  0.00000000E+00  0.00000000E+00
  0.00000000E+00  0.00000000E+00  0.00000000E+00
  0.00000000E+00  0.00000000E+00  0.00000000E+00
  0.00000000E+00  0.00000000E+00  0.00000000E+00
  0.00000000E+00  0.00000000E+00  0.00000000E+00
  0.00000000E+00  0.00000000E+00  0.00000000E+00
  0.00000000E+00  0.00000000E+00  0.00000000E+00
  0.00000000E+00  0.00000000E+00  0.00000000E+00
  0.00000000E+00  0.00000000E+00  0.00000000E+00
  0.00000000E+00  0.00000000E+00  0.00000000E+00
  0.00000000E+00  0.00000000E+00  0.00000000E+00
  0.00000000E+00  0.00000000E+00  0.00000000E+00
  0.00000000E+00  0.00000000E+00  0.00000000E+00
