Primitive Cell                          
   1.00000000000000     
     5.6030013303932718   -0.5671153754784276    0.1278151808899449
     0.5189494500282239    2.7615692904099443    0.8479678078887875
    -0.0789454329123213    1.5201252356920067   10.0299883314202507
   Li   C    O    F 
     6     2     6     2
Selective dynamics
Direct
  0.7002753488200923  0.5351792165733542  0.6444763501102244   T   T   T
  0.2616302028055060  0.1712550595008295  0.6917672732942393   T   T   T
  0.7001885280176481  0.5368536501646517  0.1444252526142904   T   T   T
  0.0059228121927362  0.2583323525786341  0.4497696547412318   T   T   T
  0.0057277179143327  0.2591786112486929  0.9497884126714382   T   T   T
  0.2613671884111284  0.1699979077242872  0.1917721442321252   T   T   T
  0.5024267167217573  0.3636943966929564  0.9112680115971585   T   T   T
  0.5026122701276421  0.3626015888277436  0.4112886194184853   T   T   T
  0.5069786125147218  0.2019821939439481  0.5526724154929497   T   T   T
  0.6987009733391290  0.4325721373917872  0.3432091862690356   T   T   T
  0.5069613962891708  0.2034291059121784  0.0526435115215378   T   T   T
  0.2980494784686414  0.4500329929166185  0.3387072119401111   T   T   T
  0.6983117572071151  0.4328278491454682  0.8431339029028706   T   T   T
  0.2979985269950092  0.4512594113166344  0.8387112376007764   T   T   T
  0.0031903790890695  0.5656270668489185  0.5798874485034631   T   T   T
  0.0031664152886961  0.5664328164994643  0.0799183937056185   T   T   T
 
  0.00000000E+00  0.00000000E+00  0.00000000E+00
  0.00000000E+00  0.00000000E+00  0.00000000E+00
  0.00000000E+00  0.00000000E+00  0.00000000E+00
  0.00000000E+00  0.00000000E+00  0.00000000E+00
  0.00000000E+00  0.00000000E+00  0.00000000E+00
  0.00000000E+00  0.00000000E+00  0.00000000E+00
  0.00000000E+00  0.00000000E+00  0.00000000E+00
  0.00000000E+00  0.00000000E+00  0.00000000E+00
  0.00000000E+00  0.00000000E+00  0.00000000E+00
  0.00000000E+00  0.00000000E+00  0.00000000E+00
  0.00000000E+00  0.00000000E+00  0.00000000E+00
  0.00000000E+00  0.00000000E+00  0.00000000E+00
  0.00000000E+00  0.00000000E+00  0.00000000E+00
  0.00000000E+00  0.00000000E+00  0.00000000E+00
  0.00000000E+00  0.00000000E+00  0.00000000E+00
  0.00000000E+00  0.00000000E+00  0.00000000E+00
