Primitive Cell                          
   1.00000000000000     
     4.7591241716319770   -0.0218771666524223   -0.0085276516311529
     0.3287882292777221    6.3686407693159550    0.0054938986901913
     0.2685118251080030    0.9829659858058257   10.5268677068079786
   Li   C    O    F 
    12     4    12     4
Selective dynamics
Direct
  0.7985532226789900  0.6635802776454227  0.3858243228208025   T   T   T
  0.1589992176865707  0.1363534242854811  0.5698428754879643   T   T   T
  0.6679794942758619  0.8832694733720956  0.6531357575952157   T   T   T
  0.7044928135194155  0.1104885949235310  0.8974533680917034   T   T   T
  0.2580803651848811  0.6915598290387734  0.0599212581937323   T   T   T
  0.2595784042673372  0.1923064263366285  0.0604494589902913   T   T   T
  0.2880532712598338  0.9185327923154105  0.3051586386581135   T   T   T
  0.2854278977145839  0.4251155830766251  0.3039365573114594   T   T   T
  0.1615349005298441  0.6356951882949389  0.5733876616682494   T   T   T
  0.7032743007141704  0.6093246494562052  0.8970350220907051   T   T   T
  0.6857794683308498  0.1627388469301181  0.3891091319834956   T   T   T
  0.6691873282522067  0.3821649288358344  0.6524671919285012   T   T   T
  0.8103140726384979  0.9781084206085779  0.1670252180102807   T   T   T
  0.8069085353313454  0.4781744537998591  0.1672750530029390   T   T   T
  0.1531642147949412  0.8230011267073039  0.7903622523611489   T   T   T
  0.1543837131322050  0.3221209404943863  0.7901247298354406   T   T   T
  0.0786405917062609  0.9391291075125920  0.1458417124247688   T   T   T
  0.6492331969484226  0.5671174619634343  0.0798858906436166   T   T   T
  0.2554496857916462  0.8708037256093206  0.6749231233634774   T   T   T
  0.2572599691653181  0.3693150389707114  0.6747208844206014   T   T   T
  0.6537663241468934  0.0706193981619592  0.0803359158020456   T   T   T
  0.0751648507524507  0.4391437071737627  0.1459067756257681   T   T   T
  0.7064669364585399  0.9257029251907767  0.2814870999253500   T   T   T
  0.7047981967583752  0.4312097112061011  0.2827852306795577   T   T   T
  0.3107812385223383  0.7329331970189159  0.8774442899735035   T   T   T
  0.3115136702837304  0.2326833028433200  0.8775731179817541   T   T   T
  0.8851355192890509  0.8628043023872749  0.8118934702969227   T   T   T
  0.8863289450579543  0.3624849802462791  0.8112339378901936   T   T   T
  0.2733646894928228  0.1594235363084167  0.4001731288771424   T   T   T
  0.2063993098845387  0.6590718887170226  0.3970609409726791   T   T   T
  0.7523327733832943  0.6444162812909653  0.5620135824074524   T   T   T
  0.7619393127917036  0.1436638434480813  0.5608009534140592   T   T   T
 
  0.00000000E+00  0.00000000E+00  0.00000000E+00
  0.00000000E+00  0.00000000E+00  0.00000000E+00
  0.00000000E+00  0.00000000E+00  0.00000000E+00
  0.00000000E+00  0.00000000E+00  0.00000000E+00
  0.00000000E+00  0.00000000E+00  0.00000000E+00
  0.00000000E+00  0.00000000E+00  0.00000000E+00
  0.00000000E+00  0.00000000E+00  0.00000000E+00
  0.00000000E+00  0.00000000E+00  0.00000000E+00
  0.00000000E+00  0.00000000E+00  0.00000000E+00
  0.00000000E+00  0.00000000E+00  0.00000000E+00
  0.00000000E+00  0.00000000E+00  0.00000000E+00
  0.00000000E+00  0.00000000E+00  0.00000000E+00
  0.00000000E+00  0.00000000E+00  0.00000000E+00
  0.00000000E+00  0.00000000E+00  0.00000000E+00
  0.00000000E+00  0.00000000E+00  0.00000000E+00
  0.00000000E+00  0.00000000E+00  0.00000000E+00
  0.00000000E+00  0.00000000E+00  0.00000000E+00
  0.00000000E+00  0.00000000E+00  0.00000000E+00
  0.00000000E+00  0.00000000E+00  0.00000000E+00
  0.00000000E+00  0.00000000E+00  0.00000000E+00
  0.00000000E+00  0.00000000E+00  0.00000000E+00
  0.00000000E+00  0.00000000E+00  0.00000000E+00
  0.00000000E+00  0.00000000E+00  0.00000000E+00
  0.00000000E+00  0.00000000E+00  0.00000000E+00
  0.00000000E+00  0.00000000E+00  0.00000000E+00
  0.00000000E+00  0.00000000E+00  0.00000000E+00
  0.00000000E+00  0.00000000E+00  0.00000000E+00
  0.00000000E+00  0.00000000E+00  0.00000000E+00
  0.00000000E+00  0.00000000E+00  0.00000000E+00
  0.00000000E+00  0.00000000E+00  0.00000000E+00
  0.00000000E+00  0.00000000E+00  0.00000000E+00
  0.00000000E+00  0.00000000E+00  0.00000000E+00
