Primitive Cell                          
   1.00000000000000     
     4.9418465544912102    0.0706284484811032   -0.3281336115149104
     0.0097976222713061    5.6066614461188671    1.3109374343175038
     0.8394004392260918    3.4849699877933737    3.4921506930629418
   Li   C    O    F 
     3     1     3     1
Selective dynamics
Direct
  0.5261539119579268  0.1314376091974268  0.1559941916042433   T   T   T
  0.0503576923894258  0.9135197594169568  0.0828205748248934   T   T   T
  0.5244012741076602  0.5877650880759262  0.1723440814852495   T   T   T
  0.0559627532836871  0.5254667639418003  0.9371549851626142   T   T   T
  0.3262801127601804  0.5655502510080552  0.8843191141938220   T   T   T
  0.9190233687209641  0.6757873524360321  0.9950080958570027   T   T   T
  0.9306382793069048  0.3437046516660800  0.9147039503261141   T   T   T
  0.4329424124040742  0.0689147329430000  0.8768638598514471   T   T   T
 
  0.00000000E+00  0.00000000E+00  0.00000000E+00
  0.00000000E+00  0.00000000E+00  0.00000000E+00
  0.00000000E+00  0.00000000E+00  0.00000000E+00
  0.00000000E+00  0.00000000E+00  0.00000000E+00
  0.00000000E+00  0.00000000E+00  0.00000000E+00
  0.00000000E+00  0.00000000E+00  0.00000000E+00
  0.00000000E+00  0.00000000E+00  0.00000000E+00
  0.00000000E+00  0.00000000E+00  0.00000000E+00
