Primitive Cell                          
   1.00000000000000     
     4.9891760470337498   -0.2119485736321890   -0.0896337918326680
     1.3194792878890660    3.5275302216682447    0.6454239822645903
    -0.0925392214544035    0.9007428451114974    8.6807405092969656
   Li   C    O    F 
     6     2     6     2
Selective dynamics
Direct
  0.9520932315607524  0.6841625611972120  0.1119209606231024   T   T   T
  0.3235575268738557  0.7437481074250272  0.8879060714369018   T   T   T
  0.4927353037069508  0.7507959300477864  0.4783876035139514   T   T   T
  0.0754268199218799  0.3942701547724923  0.4740795423391049   T   T   T
  0.6297425039981590  0.1333888051145138  0.7190994905572694   T   T   T
  0.3696957574609030  0.0749248457194085  0.1234243182191861   T   T   T
  0.0446412260002162  0.4357365805719127  0.8051624334566014   T   T   T
  0.9188469989406443  0.9738876999827184  0.3005711479908442   T   T   T
  0.9376719642306242  0.3194873104153757  0.7022298421389408   T   T   T
  0.3215354223590552  0.2630916591971015  0.8622641313345980   T   T   T
  0.9043278207912238  0.7081544167827403  0.8584380966598602   T   T   T
  0.9468320207594516  0.1819401512833139  0.1635502049672581   T   T   T
  0.0626557501832536  0.9402892275584875  0.4339440063709930   T   T   T
  0.7595256121890515  0.7613152310900233  0.3030908013835685   T   T   T
  0.4784582499426193  0.2314914600849676  0.5116334353627536   T   T   T
  0.3505178666335524  0.5873877690413565  0.1133845995279827   T   T   T
 
  0.00000000E+00  0.00000000E+00  0.00000000E+00
  0.00000000E+00  0.00000000E+00  0.00000000E+00
  0.00000000E+00  0.00000000E+00  0.00000000E+00
  0.00000000E+00  0.00000000E+00  0.00000000E+00
  0.00000000E+00  0.00000000E+00  0.00000000E+00
  0.00000000E+00  0.00000000E+00  0.00000000E+00
  0.00000000E+00  0.00000000E+00  0.00000000E+00
  0.00000000E+00  0.00000000E+00  0.00000000E+00
  0.00000000E+00  0.00000000E+00  0.00000000E+00
  0.00000000E+00  0.00000000E+00  0.00000000E+00
  0.00000000E+00  0.00000000E+00  0.00000000E+00
  0.00000000E+00  0.00000000E+00  0.00000000E+00
  0.00000000E+00  0.00000000E+00  0.00000000E+00
  0.00000000E+00  0.00000000E+00  0.00000000E+00
  0.00000000E+00  0.00000000E+00  0.00000000E+00
  0.00000000E+00  0.00000000E+00  0.00000000E+00
