Primitive Cell                          
   1.00000000000000     
     5.6989940083951751   -0.0877986025720396   -0.0340741672035742
    -1.3540645477035456    6.3508206037301296   -1.0997995447566273
    -0.0791076337019663   -2.4783065124829631    9.7185238372252698
   Li   C    O    F 
    12     4    12     4
Selective dynamics
Direct
  0.6323996769263971  0.8574649000826753  0.8662149931117114   T   T   T
  0.6321698314666122  0.8567825832974094  0.3660311099203994   T   T   T
  0.9989014039163422  0.3673743427387492  0.9409425573429928   T   T   T
  0.2268928782772051  0.0570818352704734  0.4206275345645238   T   T   T
  0.2256100736968634  0.0571879805734312  0.9218923827639358   T   T   T
  0.5936089383124354  0.5694145340380530  0.4967722615712873   T   T   T
  0.9189324206317977  0.0352317999313811  0.6749807115656452   T   T   T
  0.5922405244732332  0.5665207306909537  0.9951998204810621   T   T   T
  0.9988057990276644  0.3666516365430468  0.4406009165847706   T   T   T
  0.9168603576070353  0.0312298159676132  0.1747379850919444   T   T   T
  0.3074370886938667  0.3913640714925677  0.6866377445941367   T   T   T
  0.3058328718851584  0.3940112461772287  0.1882351424179660   T   T   T
  0.4046382129885302  0.9470134044045651  0.6472570001632079   T   T   T
  0.4016226059033059  0.9415024947469206  0.1461899631043480   T   T   T
  0.8220158934338926  0.4806963784492311  0.7151714688406443   T   T   T
  0.8202528558501712  0.4787480295464448  0.2152389483651405   T   T   T
  0.3890512443814202  0.9096644555702085  0.7633950090312354   T   T   T
  0.3857068346547408  0.9021970928771594  0.2617084003040375   T   T   T
  0.9800334721241413  0.3925457379323305  0.7539888477942185   T   T   T
  0.9779218756648120  0.3899024802590176  0.2537228438532324   T   T   T
  0.6452525274013325  0.5301772055487319  0.7953834846534775   T   T   T
  0.6445363592688764  0.5294295235590383  0.2960377539294825   T   T   T
  0.5787446389344808  0.8930333668721602  0.0660263955925302   T   T   T
  0.2436615542211271  0.0300333684017602  0.1079189008829786   T   T   T
  0.5808938813658386  0.8967227076866138  0.5666955742559878   T   T   T
  0.8379643418350184  0.5185877409038397  0.5992617087442085   T   T   T
  0.2469266760682274  0.0352596490471129  0.6083776396807679   T   T   T
  0.8358255076533965  0.5161685136901895  0.0991193950670777   T   T   T
  0.9145308912733299  0.0423170545250073  0.8616861795447832   T   T   T
  0.9144047048041628  0.0417365661587041  0.3621186631111755   T   T   T
  0.3101908032317411  0.3823633638370936  0.0007245245966132   T   T   T
  0.3111779300904658  0.3828517120063495  0.4995376046156181   T   T   T
 
  0.00000000E+00  0.00000000E+00  0.00000000E+00
  0.00000000E+00  0.00000000E+00  0.00000000E+00
  0.00000000E+00  0.00000000E+00  0.00000000E+00
  0.00000000E+00  0.00000000E+00  0.00000000E+00
  0.00000000E+00  0.00000000E+00  0.00000000E+00
  0.00000000E+00  0.00000000E+00  0.00000000E+00
  0.00000000E+00  0.00000000E+00  0.00000000E+00
  0.00000000E+00  0.00000000E+00  0.00000000E+00
  0.00000000E+00  0.00000000E+00  0.00000000E+00
  0.00000000E+00  0.00000000E+00  0.00000000E+00
  0.00000000E+00  0.00000000E+00  0.00000000E+00
  0.00000000E+00  0.00000000E+00  0.00000000E+00
  0.00000000E+00  0.00000000E+00  0.00000000E+00
  0.00000000E+00  0.00000000E+00  0.00000000E+00
  0.00000000E+00  0.00000000E+00  0.00000000E+00
  0.00000000E+00  0.00000000E+00  0.00000000E+00
  0.00000000E+00  0.00000000E+00  0.00000000E+00
  0.00000000E+00  0.00000000E+00  0.00000000E+00
  0.00000000E+00  0.00000000E+00  0.00000000E+00
  0.00000000E+00  0.00000000E+00  0.00000000E+00
  0.00000000E+00  0.00000000E+00  0.00000000E+00
  0.00000000E+00  0.00000000E+00  0.00000000E+00
  0.00000000E+00  0.00000000E+00  0.00000000E+00
  0.00000000E+00  0.00000000E+00  0.00000000E+00
  0.00000000E+00  0.00000000E+00  0.00000000E+00
  0.00000000E+00  0.00000000E+00  0.00000000E+00
  0.00000000E+00  0.00000000E+00  0.00000000E+00
  0.00000000E+00  0.00000000E+00  0.00000000E+00
  0.00000000E+00  0.00000000E+00  0.00000000E+00
  0.00000000E+00  0.00000000E+00  0.00000000E+00
  0.00000000E+00  0.00000000E+00  0.00000000E+00
  0.00000000E+00  0.00000000E+00  0.00000000E+00
