Primitive Cell                          
   1.00000000000000     
     4.9684415696218460   -0.0791169814705122    0.0171635748888050
     2.4069141850961668    6.7768046855707729    1.7359323978373942
     0.1327956240280129    4.9043992305135919   10.7867200806612953
   Li   C    O    F 
    12     4    12     4
Selective dynamics
Direct
  0.8825209908096596  0.1687363872420136  0.9084359299340150   T   T   T
  0.8805059296979607  0.1281094785540020  0.4214915512768584   T   T   T
  0.4349107931606468  0.6464460190150803  0.0967982334733506   T   T   T
  0.3152675216371534  0.2872618920587513  0.4831618799364463   T   T   T
  0.9488169487184095  0.6419880091675125  0.4634638854934536   T   T   T
  0.8999328230318682  0.8005226855338279  0.9005968696431523   T   T   T
  0.3068681690542334  0.2949484728045846  0.9962390016875489   T   T   T
  0.5091496741320896  0.7909323347230810  0.5525654209018427   T   T   T
  0.9990471753392569  0.6138598331822394  0.7357708795401479   T   T   T
  0.8811607923886626  0.8079588946910405  0.1789986651389341   T   T   T
  0.3641306412081491  0.1397863288115033  0.7742261809448081   T   T   T
  0.3774520052663561  0.1286617032677526  0.2773306347433291   T   T   T
  0.8381809567229652  0.2216277342134489  0.6328016644842691   T   T   T
  0.8223384081846845  0.2332491212716832  0.1385751396793680   T   T   T
  0.4459053914250646  0.6964602040378196  0.8310323604354863   T   T   T
  0.4302869979314394  0.7074684311155153  0.3170433480363002   T   T   T
  0.2041499313785877  0.6589192289785402  0.8472078486856915   T   T   T
  0.1991432789106966  0.6527342690431936  0.3401626611411004   T   T   T
  0.0657177062265646  0.2823084510124758  0.6101802937338690   T   T   T
  0.0694797354943191  0.2547903925172861  0.1284538615338562   T   T   T
  0.7375796310001448  0.1783464500985943  0.7450975152658827   T   T   T
  0.6692348324428821  0.2711384214175823  0.2180733185824124   T   T   T
  0.7175946772210509  0.2041349618113202  0.5462477732846764   T   T   T
  0.7197102359908101  0.1733608402594982  0.0694005371886064   T   T   T
  0.5970991448523506  0.6598705231138169  0.7529140219289800   T   T   T
  0.5586347840857400  0.7087085144026659  0.2221189846412699   T   T   T
  0.5307420455734331  0.7681909152249204  0.8968132169711822   T   T   T
  0.5292751985774728  0.7618342324320722  0.3903518357699411   T   T   T
  0.9157049895775913  0.7958549399857588  0.5394267986304158   T   T   T
  0.0281258778151923  0.8133170027034780  0.0372646783766655   T   T   T
  0.1953791659702446  0.2645351412888175  0.8639663499456844   T   T   T
  0.2619483327617473  0.1164315981408137  0.4282185323457028   T   T   T
 
  0.00000000E+00  0.00000000E+00  0.00000000E+00
  0.00000000E+00  0.00000000E+00  0.00000000E+00
  0.00000000E+00  0.00000000E+00  0.00000000E+00
  0.00000000E+00  0.00000000E+00  0.00000000E+00
  0.00000000E+00  0.00000000E+00  0.00000000E+00
  0.00000000E+00  0.00000000E+00  0.00000000E+00
  0.00000000E+00  0.00000000E+00  0.00000000E+00
  0.00000000E+00  0.00000000E+00  0.00000000E+00
  0.00000000E+00  0.00000000E+00  0.00000000E+00
  0.00000000E+00  0.00000000E+00  0.00000000E+00
  0.00000000E+00  0.00000000E+00  0.00000000E+00
  0.00000000E+00  0.00000000E+00  0.00000000E+00
  0.00000000E+00  0.00000000E+00  0.00000000E+00
  0.00000000E+00  0.00000000E+00  0.00000000E+00
  0.00000000E+00  0.00000000E+00  0.00000000E+00
  0.00000000E+00  0.00000000E+00  0.00000000E+00
  0.00000000E+00  0.00000000E+00  0.00000000E+00
  0.00000000E+00  0.00000000E+00  0.00000000E+00
  0.00000000E+00  0.00000000E+00  0.00000000E+00
  0.00000000E+00  0.00000000E+00  0.00000000E+00
  0.00000000E+00  0.00000000E+00  0.00000000E+00
  0.00000000E+00  0.00000000E+00  0.00000000E+00
  0.00000000E+00  0.00000000E+00  0.00000000E+00
  0.00000000E+00  0.00000000E+00  0.00000000E+00
  0.00000000E+00  0.00000000E+00  0.00000000E+00
  0.00000000E+00  0.00000000E+00  0.00000000E+00
  0.00000000E+00  0.00000000E+00  0.00000000E+00
  0.00000000E+00  0.00000000E+00  0.00000000E+00
  0.00000000E+00  0.00000000E+00  0.00000000E+00
  0.00000000E+00  0.00000000E+00  0.00000000E+00
  0.00000000E+00  0.00000000E+00  0.00000000E+00
  0.00000000E+00  0.00000000E+00  0.00000000E+00
