Primitive Cell                          
   1.00000000000000     
     4.9004565452244426   -0.0206089488339219    0.1792495213534060
    -0.0161060426109621    5.5940905018736382    0.5069778333678374
     2.2354399362172472    0.8746391480135329    6.3147475912497457
   Li   C    O    F 
     6     2     6     2
Selective dynamics
Direct
  0.7030771094000627  0.9983187516646126  0.5639676139117213   T   T   T
  0.9470018434357144  0.3252402669095034  0.0952475935664694   T   T   T
  0.4449432320488214  0.6433888373113703  0.0740976251850967   T   T   T
  0.5923978343879384  0.3990279942369668  0.7918943563117793   T   T   T
  0.1147443411335871  0.7163118832936135  0.7687956108127167   T   T   T
  0.3307587314825255  0.0439640978730154  0.2992638481003524   T   T   T
  0.8975645689553673  0.8122937535273351  0.2006198071313676   T   T   T
  0.1735837116453141  0.2283322759750135  0.6650631977226098   T   T   T
  0.0686209374494737  0.0534987372467768  0.6046912540846847   T   T   T
  0.1267350077667544  0.7830797029940868  0.2497135192646383   T   T   T
  0.8283977358064121  0.6696507635389537  0.0932551040846761   T   T   T
  0.4512605976191892  0.2557850222041580  0.6198540130776493   T   T   T
  0.7347960897379551  0.9887076833652984  0.2582841457858294   T   T   T
  0.9968684123582747  0.3712375519121665  0.7716898579954687   T   T   T
  0.4968222086450993  0.7244151260815244  0.7720920672926752   T   T   T
  0.3315979117356065  0.3171088388173899  0.0936474834458849   T   T   T
 
  0.00000000E+00  0.00000000E+00  0.00000000E+00
  0.00000000E+00  0.00000000E+00  0.00000000E+00
  0.00000000E+00  0.00000000E+00  0.00000000E+00
  0.00000000E+00  0.00000000E+00  0.00000000E+00
  0.00000000E+00  0.00000000E+00  0.00000000E+00
  0.00000000E+00  0.00000000E+00  0.00000000E+00
  0.00000000E+00  0.00000000E+00  0.00000000E+00
  0.00000000E+00  0.00000000E+00  0.00000000E+00
  0.00000000E+00  0.00000000E+00  0.00000000E+00
  0.00000000E+00  0.00000000E+00  0.00000000E+00
  0.00000000E+00  0.00000000E+00  0.00000000E+00
  0.00000000E+00  0.00000000E+00  0.00000000E+00
  0.00000000E+00  0.00000000E+00  0.00000000E+00
  0.00000000E+00  0.00000000E+00  0.00000000E+00
  0.00000000E+00  0.00000000E+00  0.00000000E+00
  0.00000000E+00  0.00000000E+00  0.00000000E+00
