Primitive Cell                          
   1.00000000000000     
     4.8561379956171882   -0.3704838097540626    0.7284679477509004
    -0.0760763610919723    5.6530402443828827   -0.8435156332635726
     3.2256778833842610    0.6412469776878960    2.8295830597322849
   Li   C    O    F 
     3     1     3     1
Selective dynamics
Direct
  0.1776295514132187  0.6408449478629450  0.7761023817418078   T   T   T
  0.0260527311575132  0.1380910884931055  0.0105310112926844   T   T   T
  0.6521904386819273  0.4006125127980553  0.8275784695545738   T   T   T
  0.5147009336395598  0.8627100819063358  0.0026700315458186   T   T   T
  0.5108742813202980  0.0566365358559082  0.8441294988571642   T   T   T
  0.2775943082509187  0.6502761520643787  0.1244293907409926   T   T   T
  0.7519076262526454  0.8710375571962601  0.0374164713414729   T   T   T
  0.6118627152304583  0.3759228455198169  0.3045228126280719   T   T   T
 
  0.00000000E+00  0.00000000E+00  0.00000000E+00
  0.00000000E+00  0.00000000E+00  0.00000000E+00
  0.00000000E+00  0.00000000E+00  0.00000000E+00
  0.00000000E+00  0.00000000E+00  0.00000000E+00
  0.00000000E+00  0.00000000E+00  0.00000000E+00
  0.00000000E+00  0.00000000E+00  0.00000000E+00
  0.00000000E+00  0.00000000E+00  0.00000000E+00
  0.00000000E+00  0.00000000E+00  0.00000000E+00
