Primitive Cell                          
   1.00000000000000     
     5.7817193711775623    0.3558830174366992    0.2969338800605444
    -0.1184392227043469    3.7437146148661977   -1.4892558688832207
    -0.2600951356338492   -3.8331075551528153   11.3252146710168606
   Li   C    O    F 
     9     3     9     3
Selective dynamics
Direct
  0.0574838970530109  0.8339242644784477  0.0708960757006878   T   T   T
  0.7676384238765124  0.4589933623413458  0.1812410284466353   T   T   T
  0.0911396969672253  0.1672035455043286  0.7346752553066480   T   T   T
  0.5901248575741320  0.8781881103619114  0.6480151388591580   T   T   T
  0.0414165668003506  0.4862273428689932  0.4040769259466259   T   T   T
  0.6144191716669454  0.5490790156678500  0.9798814506177180   T   T   T
  0.5211827897616104  0.2063573100992357  0.3151485454985590   T   T   T
  0.3316413367715327  0.0860254777820231  0.5030997060784657   T   T   T
  0.3962426521741875  0.7816183231922480  0.8356387462234736   T   T   T
  0.8665819211333954  0.9749796560685340  0.8965371067867807   T   T   T
  0.2858252049357404  0.6178266622754052  0.2250363146033223   T   T   T
  0.8039238623006852  0.2812166400063703  0.5611061884476882   T   T   T
  0.8591048724713914  0.1074568974699659  0.8242840966729119   T   T   T
  0.0529175809293889  0.8183544883284668  0.9058269684470517   T   T   T
  0.9894161558273851  0.1274310851865863  0.5728708195898875   T   T   T
  0.4724226045108963  0.6624369063747650  0.2969207652570915   T   T   T
  0.2950411488442413  0.7345677044978274  0.1482899375870730   T   T   T
  0.6757580451214622  0.0152214869118055  0.9666524534401049   T   T   T
  0.6118200283480846  0.3222089739616791  0.6303932444758118   T   T   T
  0.1006052472951851  0.4729403083098447  0.2395763367651114   T   T   T
  0.7994635179932530  0.3942515037803105  0.4829542843845758   T   T   T
  0.3835937774156832  0.2328111476741128  0.8200268558868942   T   T   T
  0.7772301689024488  0.9125520696105838  0.1681562327427457   T   T   T
  0.3191449070548700  0.5577667487263938  0.4978210979243087   T   T   T
 
  0.00000000E+00  0.00000000E+00  0.00000000E+00
  0.00000000E+00  0.00000000E+00  0.00000000E+00
  0.00000000E+00  0.00000000E+00  0.00000000E+00
  0.00000000E+00  0.00000000E+00  0.00000000E+00
  0.00000000E+00  0.00000000E+00  0.00000000E+00
  0.00000000E+00  0.00000000E+00  0.00000000E+00
  0.00000000E+00  0.00000000E+00  0.00000000E+00
  0.00000000E+00  0.00000000E+00  0.00000000E+00
  0.00000000E+00  0.00000000E+00  0.00000000E+00
  0.00000000E+00  0.00000000E+00  0.00000000E+00
  0.00000000E+00  0.00000000E+00  0.00000000E+00
  0.00000000E+00  0.00000000E+00  0.00000000E+00
  0.00000000E+00  0.00000000E+00  0.00000000E+00
  0.00000000E+00  0.00000000E+00  0.00000000E+00
  0.00000000E+00  0.00000000E+00  0.00000000E+00
  0.00000000E+00  0.00000000E+00  0.00000000E+00
  0.00000000E+00  0.00000000E+00  0.00000000E+00
  0.00000000E+00  0.00000000E+00  0.00000000E+00
  0.00000000E+00  0.00000000E+00  0.00000000E+00
  0.00000000E+00  0.00000000E+00  0.00000000E+00
  0.00000000E+00  0.00000000E+00  0.00000000E+00
  0.00000000E+00  0.00000000E+00  0.00000000E+00
  0.00000000E+00  0.00000000E+00  0.00000000E+00
  0.00000000E+00  0.00000000E+00  0.00000000E+00
