Primitive Cell                          
   1.00000000000000     
     4.6974148236610267   -0.9578580164133519    0.3415569606324743
     0.8185506338971577    2.7524295219774610    0.6251483494267290
     0.0121339284146705    1.5563871813459269    5.7101968179634728
   Li   C    O    F 
     3     1     3     1
Selective dynamics
Direct
  0.5898090639392919  0.8258521645309287  0.2656085945210549   T   T   T
  0.0688108794021289  0.1487996374296046  0.9342723123586012   T   T   T
  0.5757523989364444  0.8232347402664573  0.7434786547798851   T   T   T
  0.0571063006148975  0.0267490959050320  0.4605772597044009   T   T   T
  0.7849681841281608  0.1239967927536227  0.4392219276952929   T   T   T
  0.1779163964512023  0.8499927369830900  0.6848152189436547   T   T   T
  0.2023481124652378  0.0961134196403677  0.2639044348220594   T   T   T
  0.6814002147360014  0.1303721718336277  0.9341835750370890   T   T   T
 
  0.00000000E+00  0.00000000E+00  0.00000000E+00
  0.00000000E+00  0.00000000E+00  0.00000000E+00
  0.00000000E+00  0.00000000E+00  0.00000000E+00
  0.00000000E+00  0.00000000E+00  0.00000000E+00
  0.00000000E+00  0.00000000E+00  0.00000000E+00
  0.00000000E+00  0.00000000E+00  0.00000000E+00
  0.00000000E+00  0.00000000E+00  0.00000000E+00
  0.00000000E+00  0.00000000E+00  0.00000000E+00
