Primitive Cell                          
   1.00000000000000     
     5.0227975997995662    0.1546062294705418   -0.2359796341616469
     2.3305216812524110    6.3125074048791401   -1.0720746092132343
     0.3860454897868387   -0.3723972148270077    5.6899846119199777
   Li   C    O    F 
     6     2     6     2
Selective dynamics
Direct
  0.3469486158797750  0.6567399416162516  0.6883507139529002   T   T   T
  0.6530513841202250  0.3432600583837484  0.3116492860470998   T   T   T
  0.0106158932297831  0.3747145353544212  0.6452966839811296   T   T   T
  0.8529467423563446  0.8657094438290542  0.9738254926530630   T   T   T
  0.9893841067702169  0.6252854646455788  0.3547033160188704   T   T   T
  0.1470532576436554  0.1342905561709458  0.0261745073469370   T   T   T
  0.4344007089105020  0.7530978180678929  0.1913118349991407   T   T   T
  0.5655992910894980  0.2469021819321071  0.8086881650008593   T   T   T
  0.6697206961031483  0.7841687481007966  0.2063568825194650   T   T   T
  0.3302793038968517  0.2158312518992034  0.7936431174805350   T   T   T
  0.6312857283623856  0.3571443668053647  0.6698410869391509   T   T   T
  0.2586968625769472  0.8299191841770224  0.0356620058641042   T   T   T
  0.3687142716376144  0.6428556331946353  0.3301589130608491   T   T   T
  0.7413031374230457  0.1700808158229776  0.9643379941358958   T   T   T
  0.9643618099000406  0.6672525789497854  0.6880145726826612   T   T   T
  0.0356381900999523  0.3327474210502146  0.3119854273173388   T   T   T
 
  0.00000000E+00  0.00000000E+00  0.00000000E+00
  0.00000000E+00  0.00000000E+00  0.00000000E+00
  0.00000000E+00  0.00000000E+00  0.00000000E+00
  0.00000000E+00  0.00000000E+00  0.00000000E+00
  0.00000000E+00  0.00000000E+00  0.00000000E+00
  0.00000000E+00  0.00000000E+00  0.00000000E+00
  0.00000000E+00  0.00000000E+00  0.00000000E+00
  0.00000000E+00  0.00000000E+00  0.00000000E+00
  0.00000000E+00  0.00000000E+00  0.00000000E+00
  0.00000000E+00  0.00000000E+00  0.00000000E+00
  0.00000000E+00  0.00000000E+00  0.00000000E+00
  0.00000000E+00  0.00000000E+00  0.00000000E+00
  0.00000000E+00  0.00000000E+00  0.00000000E+00
  0.00000000E+00  0.00000000E+00  0.00000000E+00
  0.00000000E+00  0.00000000E+00  0.00000000E+00
  0.00000000E+00  0.00000000E+00  0.00000000E+00
