Primitive Cell                          
   1.00000000000000     
     3.1855048868150262   -0.0005083497006726   -0.0037165438815819
     0.2811325420785578    4.7393057760925608   -0.0128929687143854
     0.3288116282683667    0.1310569809672594    5.1844473592088525
   Li   C    O    F 
     3     1     3     1
Selective dynamics
Direct
  0.4042399944240316  0.1088571055211389  0.1552843891415705   T   T   T
  0.8759794200138060  0.6177350340419565  0.3279810564849654   T   T   T
  0.3887608683211710  0.6348307910647364  0.8085490482547684   T   T   T
  0.7802386476045555  0.0933381701976614  0.6160863644718830   T   T   T
  0.5977448168390396  0.2387640665504236  0.8008768620233297   T   T   T
  0.8733096928813495  0.8233412107031981  0.6497077924299717   T   T   T
  0.8642958177922111  0.2087323543694808  0.3880461571071976   T   T   T
  0.3811675025908201  0.7091279328056430  0.1563032920030807   T   T   T
 
  0.00000000E+00  0.00000000E+00  0.00000000E+00
  0.00000000E+00  0.00000000E+00  0.00000000E+00
  0.00000000E+00  0.00000000E+00  0.00000000E+00
  0.00000000E+00  0.00000000E+00  0.00000000E+00
  0.00000000E+00  0.00000000E+00  0.00000000E+00
  0.00000000E+00  0.00000000E+00  0.00000000E+00
  0.00000000E+00  0.00000000E+00  0.00000000E+00
  0.00000000E+00  0.00000000E+00  0.00000000E+00
