Primitive Cell                          
   1.00000000000000     
     3.1887193731524270   -0.0009951021497308   -0.0009994027397076
     0.1327465319688155    4.7263711938795323   -0.0033527094772510
     1.0932942698671553    0.2370098576218553   20.7567174291793002
   Li   C    O    F 
    12     4    12     4
Selective dynamics
Direct
  0.5271721483642722  0.5371277350615316  0.9298678735435786   T   T   T
  0.5010376921938189  0.5216562284336206  0.4293818511657435   T   T   T
  0.5143740758811504  0.5310028426438791  0.6795387515701776   T   T   T
  0.5149509477814078  0.4108031164844093  0.1794813624662410   T   T   T
  0.0117898852611660  0.4375320653683019  0.0605707995780165   T   T   T
  0.9957389492414777  0.5127190157654624  0.5593815200761085   T   T   T
  0.0080276409699422  0.5217178647484317  0.8094661521337798   T   T   T
  0.9891478960160995  0.4937443526001957  0.3102192713530911   T   T   T
  0.9965544547472049  0.0381707073761461  0.9710633194156983   T   T   T
  0.9729128150751123  0.0323888620131427  0.4728983049669679   T   T   T
  0.9862551224489380  0.0416629077054935  0.7223959527904569   T   T   T
  0.9827327403626924  0.9049878975965271  0.2212502024672318   T   T   T
  0.5940584729180287  0.8951156775901552  0.1073347182024023   T   T   T
  0.6001402507138209  0.0532404692682036  0.6073704304017724   T   T   T
  0.6116314041685911  0.0610836513100210  0.8569023077603504   T   T   T
  0.5901939306758166  0.0415599649362761  0.3579945159400637   T   T   T
  0.7670932366330092  0.0461846404406145  0.0621049533348526   T   T   T
  0.7777097465109080  0.9062598025674404  0.5613660638729030   T   T   T
  0.7895341440970896  0.9151241699913086  0.8107964656599691   T   T   T
  0.7727310214566145  0.8926342103764284  0.3129405916395953   T   T   T
  0.5117897822849997  0.6300548652236841  0.0979872726482327   T   T   T
  0.5086994478542692  0.3218436219814791  0.5987434369742815   T   T   T
  0.5208652793755348  0.3298187261494263  0.8486746278171822   T   T   T
  0.4984205568175781  0.3097088161080848  0.3483648584082673   T   T   T
  0.5298921590654757  0.9458175135348199  0.9138257093226585   T   T   T
  0.5048161188242020  0.9319579176254962  0.4153079260129076   T   T   T
  0.5194609756624828  0.9402844175234861  0.6644932505786159   T   T   T
  0.5075358737189575  0.0018619216443554  0.1647373269745600   T   T   T
  0.0223829323239073  0.4493677582017384  0.9719203588993324   T   T   T
  0.9953358478459720  0.4344208624333916  0.4723520993797834   T   T   T
  0.0088746717124479  0.4433553469804750  0.7225097726052851   T   T   T
  0.0038843685226624  0.4925201309149472  0.2212681186196619   T   T   T
 
  0.00000000E+00  0.00000000E+00  0.00000000E+00
  0.00000000E+00  0.00000000E+00  0.00000000E+00
  0.00000000E+00  0.00000000E+00  0.00000000E+00
  0.00000000E+00  0.00000000E+00  0.00000000E+00
  0.00000000E+00  0.00000000E+00  0.00000000E+00
  0.00000000E+00  0.00000000E+00  0.00000000E+00
  0.00000000E+00  0.00000000E+00  0.00000000E+00
  0.00000000E+00  0.00000000E+00  0.00000000E+00
  0.00000000E+00  0.00000000E+00  0.00000000E+00
  0.00000000E+00  0.00000000E+00  0.00000000E+00
  0.00000000E+00  0.00000000E+00  0.00000000E+00
  0.00000000E+00  0.00000000E+00  0.00000000E+00
  0.00000000E+00  0.00000000E+00  0.00000000E+00
  0.00000000E+00  0.00000000E+00  0.00000000E+00
  0.00000000E+00  0.00000000E+00  0.00000000E+00
  0.00000000E+00  0.00000000E+00  0.00000000E+00
  0.00000000E+00  0.00000000E+00  0.00000000E+00
  0.00000000E+00  0.00000000E+00  0.00000000E+00
  0.00000000E+00  0.00000000E+00  0.00000000E+00
  0.00000000E+00  0.00000000E+00  0.00000000E+00
  0.00000000E+00  0.00000000E+00  0.00000000E+00
  0.00000000E+00  0.00000000E+00  0.00000000E+00
  0.00000000E+00  0.00000000E+00  0.00000000E+00
  0.00000000E+00  0.00000000E+00  0.00000000E+00
  0.00000000E+00  0.00000000E+00  0.00000000E+00
  0.00000000E+00  0.00000000E+00  0.00000000E+00
  0.00000000E+00  0.00000000E+00  0.00000000E+00
  0.00000000E+00  0.00000000E+00  0.00000000E+00
  0.00000000E+00  0.00000000E+00  0.00000000E+00
  0.00000000E+00  0.00000000E+00  0.00000000E+00
  0.00000000E+00  0.00000000E+00  0.00000000E+00
  0.00000000E+00  0.00000000E+00  0.00000000E+00
