Primitive Cell                          
   1.00000000000000     
     5.5799643795075111   -0.5969015816223203   -0.1097194368904227
     0.5015304347006944    2.8088412176354343   -0.7402012935639647
     0.7358064498742236    0.5080254765636317   14.1145803176503701
   Li   C    O    F 
     9     3     9     3
Selective dynamics
Direct
  0.2943592060329365  0.9744368172198747  0.8477975377007354   T   T   T
  0.9878129710716621  0.4177191720873239  0.7201095463011029   T   T   T
  0.7362278249893848  0.0188729892902728  0.2150205611333504   T   T   T
  0.2943632795636688  0.6410382566671728  0.1811240235410807   T   T   T
  0.7362296036847624  0.6856110917652956  0.5483636239375684   T   T   T
  0.7362215325423946  0.3522307133142206  0.8816934656689028   T   T   T
  0.2943825739803216  0.3077449517912143  0.5144592812037132   T   T   T
  0.9878036900519049  0.7510155163399830  0.3867795315484699   T   T   T
  0.9877992199929508  0.0843421922173988  0.0534454348775384   T   T   T
  0.4923178846462761  0.0048283042915358  0.0280893075168009   T   T   T
  0.4922982440103851  0.3382282363867688  0.6947798817562827   T   T   T
  0.4923279939941665  0.6714718016540360  0.3614123118992723   T   T   T
  0.4867966086275857  0.0577977967559846  0.1222245000535835   T   T   T
  0.6979669561334063  0.9590947637481904  0.9793982288466054   T   T   T
  0.6979434147878223  0.6257253944586623  0.3127150056382106   T   T   T
  0.6979503048253832  0.2924538930825946  0.6460634554010056   T   T   T
  0.4867825186735928  0.3911734455552605  0.7888697232182338   T   T   T
  0.2959857196465308  0.0016534881326891  0.9832541651150635   T   T   T
  0.2960238224039102  0.6682960240359108  0.3165764193136766   T   T   T
  0.2960625572833706  0.3349391288429686  0.6499063385662822   T   T   T
  0.4868060227200743  0.7244781434331600  0.4555302334671438   T   T   T
  0.9878749022219111  0.6730493580275123  0.1403279092152445   T   T   T
  0.9878680761629610  0.0064202255415893  0.8069806098629968   T   T   T
  0.9878815387394084  0.3397234578198507  0.4736730075649973   T   T   T
 
  0.00000000E+00  0.00000000E+00  0.00000000E+00
  0.00000000E+00  0.00000000E+00  0.00000000E+00
  0.00000000E+00  0.00000000E+00  0.00000000E+00
  0.00000000E+00  0.00000000E+00  0.00000000E+00
  0.00000000E+00  0.00000000E+00  0.00000000E+00
  0.00000000E+00  0.00000000E+00  0.00000000E+00
  0.00000000E+00  0.00000000E+00  0.00000000E+00
  0.00000000E+00  0.00000000E+00  0.00000000E+00
  0.00000000E+00  0.00000000E+00  0.00000000E+00
  0.00000000E+00  0.00000000E+00  0.00000000E+00
  0.00000000E+00  0.00000000E+00  0.00000000E+00
  0.00000000E+00  0.00000000E+00  0.00000000E+00
  0.00000000E+00  0.00000000E+00  0.00000000E+00
  0.00000000E+00  0.00000000E+00  0.00000000E+00
  0.00000000E+00  0.00000000E+00  0.00000000E+00
  0.00000000E+00  0.00000000E+00  0.00000000E+00
  0.00000000E+00  0.00000000E+00  0.00000000E+00
  0.00000000E+00  0.00000000E+00  0.00000000E+00
  0.00000000E+00  0.00000000E+00  0.00000000E+00
  0.00000000E+00  0.00000000E+00  0.00000000E+00
  0.00000000E+00  0.00000000E+00  0.00000000E+00
  0.00000000E+00  0.00000000E+00  0.00000000E+00
  0.00000000E+00  0.00000000E+00  0.00000000E+00
  0.00000000E+00  0.00000000E+00  0.00000000E+00
