Primitive Cell                          
   1.00000000000000     
     5.0279731417340479   -0.0073598790026259   -0.0089608327910299
     0.0825074525177245    5.7914594310545109    0.0033487058983364
     0.9307220714088785    0.8923565691657851    8.4426478096550497
   Li   C    O    F 
     9     3     9     3
Selective dynamics
Direct
  0.6082828074526461  0.6752283583517666  0.3009363257421711   T   T   T
  0.4948393694624897  0.4166241665393215  0.0734320793287111   T   T   T
  0.5611752111884343  0.1198460772627357  0.4133871427017368   T   T   T
  0.8729344544912081  0.5789446892760921  0.6416624367145118   T   T   T
  0.8865115237657122  0.1017950511754009  0.6452044066896434   T   T   T
  0.3459919160443405  0.8485397021673577  0.7321049055601065   T   T   T
  0.0374580359474521  0.1886707076935821  0.9572819384068652   T   T   T
  0.1029946041173631  0.3846307941210370  0.3032086671079242   T   T   T
  0.0110316386592046  0.7023474009909165  0.9735813287495958   T   T   T
  0.0804566254227339  0.8733536840395999  0.3922964592079765   T   T   T
  0.3700565702784360  0.3436431961964459  0.6861584627819752   T   T   T
  0.5321547747858659  0.9338563865125025  0.0120335571905557   T   T   T
  0.9470524364743582  0.6787696388215352  0.3974056744331449   T   T   T
  0.6572639485888843  0.1278226403359355  0.0067838571581476   T   T   T
  0.3365212525878150  0.8736429631054463  0.3780177553984529   T   T   T
  0.5036586452084677  0.1612694925176754  0.6430961914419768   T   T   T
  0.1096162771687688  0.3280019759598076  0.7178962269485254   T   T   T
  0.6460847526021993  0.7386923011338098  0.0602396579650915   T   T   T
  0.9484117576459212  0.0680169417932035  0.4075257003523944   T   T   T
  0.2931380732146138  0.9290006095043140  0.9666757248681463   T   T   T
  0.4923801034571085  0.5335316467876368  0.6981202649107203   T   T   T
  0.9738663295491179  0.8196943206406573  0.7445064449775032   T   T   T
  0.4769718582257312  0.3839519344226758  0.2991937274032068   T   T   T
  0.1167327777995766  0.4220358455502975  0.0753715547600606   T   T   T
 
  0.00000000E+00  0.00000000E+00  0.00000000E+00
  0.00000000E+00  0.00000000E+00  0.00000000E+00
  0.00000000E+00  0.00000000E+00  0.00000000E+00
  0.00000000E+00  0.00000000E+00  0.00000000E+00
  0.00000000E+00  0.00000000E+00  0.00000000E+00
  0.00000000E+00  0.00000000E+00  0.00000000E+00
  0.00000000E+00  0.00000000E+00  0.00000000E+00
  0.00000000E+00  0.00000000E+00  0.00000000E+00
  0.00000000E+00  0.00000000E+00  0.00000000E+00
  0.00000000E+00  0.00000000E+00  0.00000000E+00
  0.00000000E+00  0.00000000E+00  0.00000000E+00
  0.00000000E+00  0.00000000E+00  0.00000000E+00
  0.00000000E+00  0.00000000E+00  0.00000000E+00
  0.00000000E+00  0.00000000E+00  0.00000000E+00
  0.00000000E+00  0.00000000E+00  0.00000000E+00
  0.00000000E+00  0.00000000E+00  0.00000000E+00
  0.00000000E+00  0.00000000E+00  0.00000000E+00
  0.00000000E+00  0.00000000E+00  0.00000000E+00
  0.00000000E+00  0.00000000E+00  0.00000000E+00
  0.00000000E+00  0.00000000E+00  0.00000000E+00
  0.00000000E+00  0.00000000E+00  0.00000000E+00
  0.00000000E+00  0.00000000E+00  0.00000000E+00
  0.00000000E+00  0.00000000E+00  0.00000000E+00
  0.00000000E+00  0.00000000E+00  0.00000000E+00
