Primitive Cell                          
   1.00000000000000     
     3.1405577987912849   -0.3061597411368202   -0.1395027277762741
    -1.7790984270973602    4.7322695644249384    0.0229960340933879
    -0.2757348783937550   -0.1654139151870347    5.6296089043470676
   Li   C    O    F 
     3     1     3     1
Selective dynamics
Direct
  0.1992139340986938  0.6506791776786969  0.2575255979045039   T   T   T
  0.1307930830515929  0.1655585185854633  0.0009928512246660   T   T   T
  0.8021427156769008  0.5324963014338380  0.6930165669957375   T   T   T
  0.0222692909617521  0.0821275664533658  0.4979590285913886   T   T   T
  0.1500842935429816  0.3660534526612906  0.5062354606537980   T   T   T
  0.0000154671856833  0.9477384454999580  0.6926863313284386   T   T   T
  0.9235676918349114  0.9355169244124752  0.2918829190494847   T   T   T
  0.8136187745266170  0.4103600094160740  0.9993673560662444   T   T   T
 
  0.00000000E+00  0.00000000E+00  0.00000000E+00
  0.00000000E+00  0.00000000E+00  0.00000000E+00
  0.00000000E+00  0.00000000E+00  0.00000000E+00
  0.00000000E+00  0.00000000E+00  0.00000000E+00
  0.00000000E+00  0.00000000E+00  0.00000000E+00
  0.00000000E+00  0.00000000E+00  0.00000000E+00
  0.00000000E+00  0.00000000E+00  0.00000000E+00
  0.00000000E+00  0.00000000E+00  0.00000000E+00
