Primitive Cell                          
   1.00000000000000     
     4.8367051696417809    0.0126406462485508   -0.0002046193009804
    -2.3271681676429665    4.4583212395569713   -0.0116802000906958
    -0.3693305172209598   -0.5668016739377612    8.2443940874376764
   Li   C    O    F 
     6     2     6     2
Selective dynamics
Direct
  0.2922944412443371  0.1307310412708205  0.8628756716959316   T   T   T
  0.7728428099500562  0.1567628185772136  0.3446134936017202   T   T   T
  0.4919792900126936  0.5574869594799736  0.3727064827438227   T   T   T
  0.1479437520341591  0.8873733556785552  0.5094455608636750   T   T   T
  0.9966043198707553  0.8301670841428859  0.1983206796233787   T   T   T
  0.8385351788084563  0.5789483269734106  0.8466888231089129   T   T   T
  0.7224551718311218  0.9980791941691436  0.6674375234401850   T   T   T
  0.4113291722926675  0.7141560582477382  0.0410784215265423   T   T   T
  0.5565170296297808  0.8942637656067518  0.5285805753862363   T   T   T
  0.6699292091916220  0.1711316849627522  0.7656101762707621   T   T   T
  0.9435417433499680  0.9245066332447180  0.7019163350091873   T   T   T
  0.1881259501984260  0.7859392665847125  0.0072468574282496   T   T   T
  0.5815539111524188  0.8231166212518346  0.1775681385272847   T   T   T
  0.4599784988737383  0.5379742970720258  0.9431445362421300   T   T   T
  0.1758389648139271  0.1675309803342486  0.3537154202469210   T   T   T
  0.8813049095870866  0.5544475250821321  0.3640582070781235   T   T   T
 
  0.00000000E+00  0.00000000E+00  0.00000000E+00
  0.00000000E+00  0.00000000E+00  0.00000000E+00
  0.00000000E+00  0.00000000E+00  0.00000000E+00
  0.00000000E+00  0.00000000E+00  0.00000000E+00
  0.00000000E+00  0.00000000E+00  0.00000000E+00
  0.00000000E+00  0.00000000E+00  0.00000000E+00
  0.00000000E+00  0.00000000E+00  0.00000000E+00
  0.00000000E+00  0.00000000E+00  0.00000000E+00
  0.00000000E+00  0.00000000E+00  0.00000000E+00
  0.00000000E+00  0.00000000E+00  0.00000000E+00
  0.00000000E+00  0.00000000E+00  0.00000000E+00
  0.00000000E+00  0.00000000E+00  0.00000000E+00
  0.00000000E+00  0.00000000E+00  0.00000000E+00
  0.00000000E+00  0.00000000E+00  0.00000000E+00
  0.00000000E+00  0.00000000E+00  0.00000000E+00
  0.00000000E+00  0.00000000E+00  0.00000000E+00
