Primitive Cell                          
   1.00000000000000     
     4.9692678680916265   -0.0159278138443477   -0.1185497517553282
    -0.0117130709761864    5.8773236734739109   -0.2923304885368542
     0.6151633946667096    0.6004004010295690   10.7051911463568281
   Li   C    O    F 
    12     4    12     4
Selective dynamics
Direct
  0.8456175978195262  0.2379877802779760  0.8454949676900227   T   T   T
  0.8583845777342205  0.6951455702120128  0.7621204398135362   T   T   T
  0.4938282771384621  0.2144705445328299  0.0918813700645558   T   T   T
  0.0301817339430741  0.4499244616643807  0.5291112224488259   T   T   T
  0.8641487670941643  0.1711188600323865  0.3450644185757028   T   T   T
  0.0142744114257027  0.9573865088162989  0.0267762468702628   T   T   T
  0.3370303066724034  0.9537900737860099  0.8236747346580557   T   T   T
  0.5217965863633154  0.7350420121406955  0.5084282734639984   T   T   T
  0.5104084529567103  0.1928002425536448  0.5920874324666272   T   T   T
  0.3538916607262337  0.4575438467440804  0.3265023170352919   T   T   T
  0.8742843826123305  0.7138586576494816  0.2622297807219667   T   T   T
  0.5053634591166087  0.6736926750270271  0.0085302217274261   T   T   T
  0.3761572013329371  0.9631560135158068  0.2900042735905899   T   T   T
  0.0092897458199559  0.9427748208574585  0.5638840776827081   T   T   T
  0.9931699088674861  0.4629408119491742  0.0641277897572508   T   T   T
  0.3594198916955662  0.4474867635530018  0.7899277676842971   T   T   T
  0.2486669116519948  0.4612177627233507  0.0794256649644396   T   T   T
  0.1034734699635393  0.4494565944865485  0.7765648194944248   T   T   T
  0.2651305806539455  0.9449513135603169  0.5783003024641289   T   T   T
  0.5051352377134819  0.7790964724228289  0.3199018167081533   T   T   T
  0.5118494139529943  0.1527340233292023  0.2743006192604724   T   T   T
  0.1204924322350607  0.9604250389615387  0.2751106874764702   T   T   T
  0.8576829604230696  0.6516706005929507  0.0796609313988412   T   T   T
  0.4891067522737274  0.6316473045164628  0.8193942944365773   T   T   T
  0.8731260520189181  0.7532451110942731  0.5789241045938098   T   T   T
  0.8804239401380087  0.1273700895712366  0.5348877045216938   T   T   T
  0.8640773761358460  0.2790137472474115  0.0340239825114352   T   T   T
  0.4947682521060202  0.2590893492238067  0.7736882368479101   T   T   T
  0.9627970809409234  0.9461755983322675  0.8466802117678185   T   T   T
  0.4044124793968464  0.4420548107606734  0.5060706899357399   T   T   T
  0.9799624689518467  0.4642851157998109  0.3491935820344807   T   T   T
  0.3887361179969417  0.9659187808465930  0.0040943600583319   T   T   T
 
  0.00000000E+00  0.00000000E+00  0.00000000E+00
  0.00000000E+00  0.00000000E+00  0.00000000E+00
  0.00000000E+00  0.00000000E+00  0.00000000E+00
  0.00000000E+00  0.00000000E+00  0.00000000E+00
  0.00000000E+00  0.00000000E+00  0.00000000E+00
  0.00000000E+00  0.00000000E+00  0.00000000E+00
  0.00000000E+00  0.00000000E+00  0.00000000E+00
  0.00000000E+00  0.00000000E+00  0.00000000E+00
  0.00000000E+00  0.00000000E+00  0.00000000E+00
  0.00000000E+00  0.00000000E+00  0.00000000E+00
  0.00000000E+00  0.00000000E+00  0.00000000E+00
  0.00000000E+00  0.00000000E+00  0.00000000E+00
  0.00000000E+00  0.00000000E+00  0.00000000E+00
  0.00000000E+00  0.00000000E+00  0.00000000E+00
  0.00000000E+00  0.00000000E+00  0.00000000E+00
  0.00000000E+00  0.00000000E+00  0.00000000E+00
  0.00000000E+00  0.00000000E+00  0.00000000E+00
  0.00000000E+00  0.00000000E+00  0.00000000E+00
  0.00000000E+00  0.00000000E+00  0.00000000E+00
  0.00000000E+00  0.00000000E+00  0.00000000E+00
  0.00000000E+00  0.00000000E+00  0.00000000E+00
  0.00000000E+00  0.00000000E+00  0.00000000E+00
  0.00000000E+00  0.00000000E+00  0.00000000E+00
  0.00000000E+00  0.00000000E+00  0.00000000E+00
  0.00000000E+00  0.00000000E+00  0.00000000E+00
  0.00000000E+00  0.00000000E+00  0.00000000E+00
  0.00000000E+00  0.00000000E+00  0.00000000E+00
  0.00000000E+00  0.00000000E+00  0.00000000E+00
  0.00000000E+00  0.00000000E+00  0.00000000E+00
  0.00000000E+00  0.00000000E+00  0.00000000E+00
  0.00000000E+00  0.00000000E+00  0.00000000E+00
  0.00000000E+00  0.00000000E+00  0.00000000E+00
