Primitive Cell                          
   1.00000000000000     
     4.9141641743666167   -0.0284536103277793    0.1243690387155651
     0.0178650499815087    5.6140913748211192    0.5981658912665854
     2.3160419226267499    0.8467085594622964    6.1966109156752580
   Li   C    O    F 
     6     2     6     2
Selective dynamics
Direct
  0.6936683253018430  0.1484790150606585  0.1258216032831143   T   T   T
  0.3238484023964645  0.1818801245925101  0.8577522719998143   T   T   T
  0.4314635869747718  0.7815610237629969  0.6378252266974229   T   T   T
  0.9101779249957573  0.4671114365428011  0.6555579643690805   T   T   T
  0.0783356721499615  0.8632071669265144  0.3269076652016167   T   T   T
  0.5800589709339548  0.5481654144127432  0.3459195993391972   T   T   T
  0.8520233060472506  0.9524821472775571  0.7621560120009434   T   T   T
  0.1269229428087186  0.3781489145951724  0.2210341325647960   T   T   T
  0.1953806153848134  0.5201562202305325  0.3286253064450477   T   T   T
  0.8981325851313713  0.4080130254532435  0.1717178905472352   T   T   T
  0.2890022577602736  0.2020886044768844  0.1646311136806062   T   T   T
  0.9574628405284926  0.1273986270470218  0.8199508956294679   T   T   T
  0.0289323095655121  0.8109288792222671  0.6544491426794750   T   T   T
  0.5742206344158873  0.9239234563909875  0.8103170894324307   T   T   T
  0.5294921409461324  0.4587093270871065  0.6530427817846203   T   T   T
  0.6933356428717872  0.8716042534687887  0.3309534449771476   T   T   T
 
  0.00000000E+00  0.00000000E+00  0.00000000E+00
  0.00000000E+00  0.00000000E+00  0.00000000E+00
  0.00000000E+00  0.00000000E+00  0.00000000E+00
  0.00000000E+00  0.00000000E+00  0.00000000E+00
  0.00000000E+00  0.00000000E+00  0.00000000E+00
  0.00000000E+00  0.00000000E+00  0.00000000E+00
  0.00000000E+00  0.00000000E+00  0.00000000E+00
  0.00000000E+00  0.00000000E+00  0.00000000E+00
  0.00000000E+00  0.00000000E+00  0.00000000E+00
  0.00000000E+00  0.00000000E+00  0.00000000E+00
  0.00000000E+00  0.00000000E+00  0.00000000E+00
  0.00000000E+00  0.00000000E+00  0.00000000E+00
  0.00000000E+00  0.00000000E+00  0.00000000E+00
  0.00000000E+00  0.00000000E+00  0.00000000E+00
  0.00000000E+00  0.00000000E+00  0.00000000E+00
  0.00000000E+00  0.00000000E+00  0.00000000E+00
