Primitive Cell                          
   1.00000000000000     
     4.8605039840604176   -0.3682702895636941    1.0670767682551818
    -0.1722520416846225    5.7635374485958319   -0.4654923439140722
     3.2059712960107052    0.7342209003280059    3.1313383385420792
   Li   C    O    F 
     3     1     3     1
Selective dynamics
Direct
  0.0196630819409407  0.7027058221216436  0.6892781881028469   T   T   T
  0.9266349931246864  0.1772920023476985  0.8347211382852180   T   T   T
  0.3734075610803345  0.4564083646991719  0.8723810300943171   T   T   T
  0.5300658984902640  0.9914092439046414  0.6966842692201567   T   T   T
  0.3103447555710872  0.9765770091222521  0.6448175200458408   T   T   T
  0.5454470192739223  0.7970916296797839  0.8412057740760801   T   T   T
  0.7374161528291978  0.2083671221138630  0.6081552345007069   T   T   T
  0.3901628012434131  0.4830599246517409  0.4480344589983005   T   T   T
 
  0.00000000E+00  0.00000000E+00  0.00000000E+00
  0.00000000E+00  0.00000000E+00  0.00000000E+00
  0.00000000E+00  0.00000000E+00  0.00000000E+00
  0.00000000E+00  0.00000000E+00  0.00000000E+00
  0.00000000E+00  0.00000000E+00  0.00000000E+00
  0.00000000E+00  0.00000000E+00  0.00000000E+00
  0.00000000E+00  0.00000000E+00  0.00000000E+00
  0.00000000E+00  0.00000000E+00  0.00000000E+00
