Primitive Cell                          
   1.00000000000000     
     4.9794425612829212   -0.0063613007078216   -0.5327690864330697
    -0.0169819998726692    5.7807565050610394    0.1111228895550606
    -2.0590932005279088   -1.3722267417054772    6.0011288637477183
   Li   C    O    F 
     6     2     6     2
Selective dynamics
Direct
  0.5053754752396244  0.3958862477462972  0.6597377802837485   T   T   T
  0.4946245247603756  0.6041137522537028  0.3402622197162515   T   T   T
  0.4019510143137310  0.0244124557491503  0.1693439779802759   T   T   T
  0.9575428912424044  0.2987750218377840  0.1977389604208923   T   T   T
  0.0424571087575956  0.7012249781622160  0.8022610395791077   T   T   T
  0.5980489856862690  0.9755875442508497  0.8306560220197241   T   T   T
  0.9221005637576383  0.7797079795085793  0.2022316333371208   T   T   T
  0.0778994362423617  0.2202920204914207  0.7977683666628792   T   T   T
  0.2174719007259256  0.0301555740648851  0.8265483140314061   T   T   T
  0.8406021538579651  0.2368831322091296  0.8349301606469766   T   T   T
  0.1766300265557561  0.3912419606915165  0.7401037414834875   T   T   T
  0.8233699734442439  0.6087580393084835  0.2598962585165125   T   T   T
  0.7825280992740744  0.9698444259351149  0.1734516859685939   T   T   T
  0.1593978461420349  0.7631168677908704  0.1650698393530234   T   T   T
  0.3638584118725134  0.2991683330206598  0.3352978211155673   T   T   T
  0.6361415881274866  0.7008316669793402  0.6647021788844327   T   T   T
 
  0.00000000E+00  0.00000000E+00  0.00000000E+00
  0.00000000E+00  0.00000000E+00  0.00000000E+00
  0.00000000E+00  0.00000000E+00  0.00000000E+00
  0.00000000E+00  0.00000000E+00  0.00000000E+00
  0.00000000E+00  0.00000000E+00  0.00000000E+00
  0.00000000E+00  0.00000000E+00  0.00000000E+00
  0.00000000E+00  0.00000000E+00  0.00000000E+00
  0.00000000E+00  0.00000000E+00  0.00000000E+00
  0.00000000E+00  0.00000000E+00  0.00000000E+00
  0.00000000E+00  0.00000000E+00  0.00000000E+00
  0.00000000E+00  0.00000000E+00  0.00000000E+00
  0.00000000E+00  0.00000000E+00  0.00000000E+00
  0.00000000E+00  0.00000000E+00  0.00000000E+00
  0.00000000E+00  0.00000000E+00  0.00000000E+00
  0.00000000E+00  0.00000000E+00  0.00000000E+00
  0.00000000E+00  0.00000000E+00  0.00000000E+00
