Primitive Cell                          
   1.00000000000000     
     3.2198249051411505    0.0063010956027840   -0.1173429401831552
     0.0142868642181486    7.0435483824452385    0.0861974128803808
    -0.3695437478685614   -0.2126737695080046    7.1353889421218453
   Li   C    O    F 
     6     2     6     2
Selective dynamics
Direct
  0.9146916163357020  0.9387956725491691  0.7037248340785496   T   T   T
  0.0853083836642980  0.0612043274508309  0.2962751659214504   T   T   T
  0.0852042282213716  0.4385295237411668  0.2971967766206447   T   T   T
  0.5324937216241565  0.2517796139450894  0.9827558681871480   T   T   T
  0.4675062783758435  0.7482203860549106  0.0172441318128520   T   T   T
  0.9147957717786284  0.5614704762588261  0.7028032233793553   T   T   T
  0.6685851832358551  0.7481616707985026  0.3416914691806596   T   T   T
  0.3314148167641449  0.2518383292014974  0.6583085308193404   T   T   T
  0.4302059637467721  0.4101482037228266  0.7502252478477374   T   T   T
  0.1288735365929767  0.2533041891357470  0.4962491845872705   T   T   T
  0.4258516822546099  0.0928286220642249  0.7438335369835016   T   T   T
  0.5741483177453901  0.9071713779357751  0.2561664630164984   T   T   T
  0.5697940362532279  0.5898517962771734  0.2497747521522626   T   T   T
  0.8711264634070233  0.7466958108642530  0.5037508154127295   T   T   T
  0.0556479893106001  0.2467921652278022  0.1095195732889138   T   T   T
  0.9443520106893999  0.7532078347721978  0.8904804267110862   T   T   T
 
  0.00000000E+00  0.00000000E+00  0.00000000E+00
  0.00000000E+00  0.00000000E+00  0.00000000E+00
  0.00000000E+00  0.00000000E+00  0.00000000E+00
  0.00000000E+00  0.00000000E+00  0.00000000E+00
  0.00000000E+00  0.00000000E+00  0.00000000E+00
  0.00000000E+00  0.00000000E+00  0.00000000E+00
  0.00000000E+00  0.00000000E+00  0.00000000E+00
  0.00000000E+00  0.00000000E+00  0.00000000E+00
  0.00000000E+00  0.00000000E+00  0.00000000E+00
  0.00000000E+00  0.00000000E+00  0.00000000E+00
  0.00000000E+00  0.00000000E+00  0.00000000E+00
  0.00000000E+00  0.00000000E+00  0.00000000E+00
  0.00000000E+00  0.00000000E+00  0.00000000E+00
  0.00000000E+00  0.00000000E+00  0.00000000E+00
  0.00000000E+00  0.00000000E+00  0.00000000E+00
  0.00000000E+00  0.00000000E+00  0.00000000E+00
