Primitive Cell                          
   1.00000000000000     
     3.1843892638636042   -0.0047199848019384    0.0017672342846285
    -0.0162578780789630    4.6842674318681228    0.0085419183318363
    -0.0890185270377098    0.0092771648315038   10.5747069885113572
   Li   C    O    F 
     6     2     6     2
Selective dynamics
Direct
  0.3482045149798907  0.9466729888866610  0.9165269691821436   T   T   T
  0.4567260565370290  0.0354754458155071  0.4283634283605764   T   T   T
  0.8501693818247418  0.4510610038348801  0.0124499434142535   T   T   T
  0.9582894432270237  0.4606667207650048  0.5036565392100272   T   T   T
  0.4070096618357297  0.4664341223280175  0.7517746542583055   T   T   T
  0.8995084461139697  0.0226861029192236  0.1802578077259369   T   T   T
  0.0318212788922736  0.9258799384330558  0.6498797093498112   T   T   T
  0.5241900279049787  0.5695639908815195  0.2827090949473501   T   T   T
  0.9315636304636428  0.6567375002211620  0.6649711697066678   T   T   T
  0.6973711594122847  0.4261334690908924  0.1950156809691634   T   T   T
  0.9614032633914960  0.0426377140685403  0.5384440863339606   T   T   T
  0.4567295983972528  0.4547522125014822  0.3944078953451253   T   T   T
  0.2080753165857914  0.0684719411124846  0.7387542956272739   T   T   T
  0.4246475897653852  0.8380782924009509  0.2663922485372154   T   T   T
  0.8619357954168478  0.0375439207066179  0.0054377392847087   T   T   T
  0.3597892573609798  0.5424621218656185  0.9231891036097366   T   T   T
 
  0.00000000E+00  0.00000000E+00  0.00000000E+00
  0.00000000E+00  0.00000000E+00  0.00000000E+00
  0.00000000E+00  0.00000000E+00  0.00000000E+00
  0.00000000E+00  0.00000000E+00  0.00000000E+00
  0.00000000E+00  0.00000000E+00  0.00000000E+00
  0.00000000E+00  0.00000000E+00  0.00000000E+00
  0.00000000E+00  0.00000000E+00  0.00000000E+00
  0.00000000E+00  0.00000000E+00  0.00000000E+00
  0.00000000E+00  0.00000000E+00  0.00000000E+00
  0.00000000E+00  0.00000000E+00  0.00000000E+00
  0.00000000E+00  0.00000000E+00  0.00000000E+00
  0.00000000E+00  0.00000000E+00  0.00000000E+00
  0.00000000E+00  0.00000000E+00  0.00000000E+00
  0.00000000E+00  0.00000000E+00  0.00000000E+00
  0.00000000E+00  0.00000000E+00  0.00000000E+00
  0.00000000E+00  0.00000000E+00  0.00000000E+00
