Primitive Cell                          
   1.00000000000000     
     5.0119841021915867    0.0125199849234419    0.3014443669239111
     0.0381438400876882    5.6445760410433605    0.6173494379617633
     2.0227494188247319    0.7423193892481279    6.2049438417418896
   Li   C    O    F 
     6     2     6     2
Selective dynamics
Direct
  0.6621432552555007  0.6868471225410673  0.3217225948113906   T   T   T
  0.3378567447444993  0.3131528774589327  0.6782774051886094   T   T   T
  0.2248102843666970  0.9694315572597745  0.1434747817141542   T   T   T
  0.8744503535513175  0.6288197524181456  0.6417983650970456   T   T   T
  0.7751897156333030  0.0305684427402255  0.8565252182858458   T   T   T
  0.1255496464486825  0.3711802475818473  0.3582016349029544   T   T   T
  0.3081134178452274  0.8046614712734907  0.7578027372451785   T   T   T
  0.6918865821547726  0.1953385287265093  0.2421972627548215   T   T   T
  0.0410959871096068  0.7945000711049630  0.7884323848965806   T   T   T
  0.9589040128903932  0.2054999288950370  0.2115676151034265   T   T   T
  0.5844882785485908  0.0232803788360485  0.1840429054681252   T   T   T
  0.4747646291354570  0.6458415264423181  0.6687984164283947   T   T   T
  0.4155117214514092  0.9767196211639515  0.8159570945318748   T   T   T
  0.5252353708645430  0.3541584735576890  0.3312015835716053   T   T   T
  0.0323401444934532  0.6864238274924048  0.3229503918442731   T   T   T
  0.9676598555065468  0.3135761725075952  0.6770496081557198   T   T   T
 
  0.00000000E+00  0.00000000E+00  0.00000000E+00
  0.00000000E+00  0.00000000E+00  0.00000000E+00
  0.00000000E+00  0.00000000E+00  0.00000000E+00
  0.00000000E+00  0.00000000E+00  0.00000000E+00
  0.00000000E+00  0.00000000E+00  0.00000000E+00
  0.00000000E+00  0.00000000E+00  0.00000000E+00
  0.00000000E+00  0.00000000E+00  0.00000000E+00
  0.00000000E+00  0.00000000E+00  0.00000000E+00
  0.00000000E+00  0.00000000E+00  0.00000000E+00
  0.00000000E+00  0.00000000E+00  0.00000000E+00
  0.00000000E+00  0.00000000E+00  0.00000000E+00
  0.00000000E+00  0.00000000E+00  0.00000000E+00
  0.00000000E+00  0.00000000E+00  0.00000000E+00
  0.00000000E+00  0.00000000E+00  0.00000000E+00
  0.00000000E+00  0.00000000E+00  0.00000000E+00
  0.00000000E+00  0.00000000E+00  0.00000000E+00
