Primitive Cell                          
   1.00000000000000     
     4.8219643076870931   -0.3128698482608834   -0.5902936125643352
    -2.0383715440569956    6.5660038161652619   -0.7330333237021699
    -1.6430255209912030   -2.8878571289274446    5.9188113327657090
   Li   C    O    F 
     6     2     6     2
Selective dynamics
Direct
  0.5699182965504122  0.9740502677750911  0.8247708191027314   T   T   T
  0.4300817034495878  0.0259497322249089  0.1752291808972686   T   T   T
  0.2414063306990641  0.2707429325279449  0.8971489852932280   T   T   T
  0.8808503088850230  0.6571599548052873  0.5334123758626674   T   T   T
  0.7585936693009359  0.7292570674720551  0.1028510147067720   T   T   T
  0.1191496911149770  0.3428400451947127  0.4665876241373326   T   T   T
  0.3239525594510155  0.6794874510007674  0.3115337009214159   T   T   T
  0.6760474405489845  0.3205125489992326  0.6884662990785841   T   T   T
  0.5261606951421314  0.6146653052543982  0.2549665820039593   T   T   T
  0.4738393048578686  0.3853346947456018  0.7450334179960407   T   T   T
  0.7972447154474054  0.2198612104711728  0.7809989600698444   T   T   T
  0.2505023556274821  0.6417464139669491  0.4662122387657419   T   T   T
  0.2027552845525946  0.7801387895288201  0.2190010399301556   T   T   T
  0.7494976443725179  0.3582535860330509  0.5337877612342510   T   T   T
  0.1997735762618049  0.9804840375943868  0.8645059763391387   T   T   T
  0.8002264237381951  0.0195159624056132  0.1354940236608613   T   T   T
 
  0.00000000E+00  0.00000000E+00  0.00000000E+00
  0.00000000E+00  0.00000000E+00  0.00000000E+00
  0.00000000E+00  0.00000000E+00  0.00000000E+00
  0.00000000E+00  0.00000000E+00  0.00000000E+00
  0.00000000E+00  0.00000000E+00  0.00000000E+00
  0.00000000E+00  0.00000000E+00  0.00000000E+00
  0.00000000E+00  0.00000000E+00  0.00000000E+00
  0.00000000E+00  0.00000000E+00  0.00000000E+00
  0.00000000E+00  0.00000000E+00  0.00000000E+00
  0.00000000E+00  0.00000000E+00  0.00000000E+00
  0.00000000E+00  0.00000000E+00  0.00000000E+00
  0.00000000E+00  0.00000000E+00  0.00000000E+00
  0.00000000E+00  0.00000000E+00  0.00000000E+00
  0.00000000E+00  0.00000000E+00  0.00000000E+00
  0.00000000E+00  0.00000000E+00  0.00000000E+00
  0.00000000E+00  0.00000000E+00  0.00000000E+00
