Primitive Cell                          
   1.00000000000000     
     4.8435266135255937    0.0988478353394525   -0.1282810198808289
     2.3645154989038759    6.5336361030323999    0.6909349887233410
     2.2286840311526257    3.2585028460581511    5.5578036253503349
   Li   C    O    F 
     6     2     6     2
Selective dynamics
Direct
  0.9007144473886370  0.5248302376109706  0.8267387692058961   T   T   T
  0.0992855526113630  0.4751697623890294  0.1732612307941039   T   T   T
  0.5264313682855999  0.2296801407399514  0.8986828556718791   T   T   T
  0.2763508374497263  0.8438578449940408  0.5324970324197764   T   T   T
  0.4735686317143930  0.7703198592600486  0.1013171443281209   T   T   T
  0.7236491625502737  0.1561421550059592  0.4675029675802236   T   T   T
  0.8538457126478036  0.8196531200441157  0.3131267393363615   T   T   T
  0.1461542873521964  0.1803468799558772  0.6868732606636385   T   T   T
  0.5873590602725329  0.8875985019568233  0.2524818881481750   T   T   T
  0.4126409397274813  0.1124014980431767  0.7475181118518250   T   T   T
  0.9240632658272645  0.2797702421567649  0.7786915390619527   T   T   T
  0.8863547113881509  0.8528717576328404  0.4723592606355496   T   T   T
  0.0759367341727284  0.7202297578432351  0.2213084609380473   T   T   T
  0.1136452886118491  0.1471282423671596  0.5276407393644504   T   T   T
  0.2815098712546487  0.5221853330888990  0.8627355365252072   T   T   T
  0.7184901287453513  0.4778146669111081  0.1372644634747928   T   T   T
 
  0.00000000E+00  0.00000000E+00  0.00000000E+00
  0.00000000E+00  0.00000000E+00  0.00000000E+00
  0.00000000E+00  0.00000000E+00  0.00000000E+00
  0.00000000E+00  0.00000000E+00  0.00000000E+00
  0.00000000E+00  0.00000000E+00  0.00000000E+00
  0.00000000E+00  0.00000000E+00  0.00000000E+00
  0.00000000E+00  0.00000000E+00  0.00000000E+00
  0.00000000E+00  0.00000000E+00  0.00000000E+00
  0.00000000E+00  0.00000000E+00  0.00000000E+00
  0.00000000E+00  0.00000000E+00  0.00000000E+00
  0.00000000E+00  0.00000000E+00  0.00000000E+00
  0.00000000E+00  0.00000000E+00  0.00000000E+00
  0.00000000E+00  0.00000000E+00  0.00000000E+00
  0.00000000E+00  0.00000000E+00  0.00000000E+00
  0.00000000E+00  0.00000000E+00  0.00000000E+00
  0.00000000E+00  0.00000000E+00  0.00000000E+00
