Primitive Cell                          
   1.00000000000000     
     7.2330357304579653    0.0000000000000000    0.0000000000000000
     0.0000000000000000    3.1911245941645019    0.0289961566079938
     0.0000000000000000    0.8426697047058492    7.2975027127479422
   Li   C    O    F 
     6     2     6     2
Selective dynamics
Direct
  0.7500000000000000  0.4814664667069550  0.9738792580977673   T   T   T
  0.2500000000000000  0.5185335332930450  0.0261207419022327   T   T   T
  0.5632948150438253  0.9003573886859968  0.2928737721845280   T   T   T
  0.0632948150438253  0.0996426113140032  0.7071262278154720   T   T   T
  0.4367051849561747  0.0996426113140032  0.7071262278154720   T   T   T
  0.9367051849561747  0.9003573886859968  0.2928737721845280   T   T   T
  0.7500000000000000  0.6697720146003974  0.6509647632574413   T   T   T
  0.2500000000000000  0.3302279853996026  0.3490352367425587   T   T   T
  0.7500000000000000  0.8426265825528958  0.4848253140026202   T   T   T
  0.2500000000000000  0.1573734174471042  0.5151746859973798   T   T   T
  0.4047783292923413  0.4151858918826932  0.2586262985163117   T   T   T
  0.5952216707076587  0.5848141081173068  0.7413737014836883   T   T   T
  0.9047783292923413  0.5848141081173068  0.7413737014836883   T   T   T
  0.0952216707076587  0.4151858918826932  0.2586262985163117   T   T   T
  0.7500000000000000  0.9436551745653574  0.1067508982812555   T   T   T
  0.2500000000000000  0.0563448254346426  0.8932491017187445   T   T   T
 
  0.00000000E+00  0.00000000E+00  0.00000000E+00
  0.00000000E+00  0.00000000E+00  0.00000000E+00
  0.00000000E+00  0.00000000E+00  0.00000000E+00
  0.00000000E+00  0.00000000E+00  0.00000000E+00
  0.00000000E+00  0.00000000E+00  0.00000000E+00
  0.00000000E+00  0.00000000E+00  0.00000000E+00
  0.00000000E+00  0.00000000E+00  0.00000000E+00
  0.00000000E+00  0.00000000E+00  0.00000000E+00
  0.00000000E+00  0.00000000E+00  0.00000000E+00
  0.00000000E+00  0.00000000E+00  0.00000000E+00
  0.00000000E+00  0.00000000E+00  0.00000000E+00
  0.00000000E+00  0.00000000E+00  0.00000000E+00
  0.00000000E+00  0.00000000E+00  0.00000000E+00
  0.00000000E+00  0.00000000E+00  0.00000000E+00
  0.00000000E+00  0.00000000E+00  0.00000000E+00
  0.00000000E+00  0.00000000E+00  0.00000000E+00
