Primitive Cell                          
   1.00000000000000     
     5.6777916163918878    0.6729457610632592    0.0524841971611243
     2.3073956034612779    3.1093492681954857    0.4672087529598239
     2.4567770092736909    0.9634955830544912   12.6187144400377562
   Li   C    O    F 
     9     3     9     3
Selective dynamics
Direct
  0.8101284913827413  0.8432105386309630  0.3262279112297009   T   T   T
  0.3040679744007448  0.1712387285412760  0.4895366583305432   T   T   T
  0.7295299205701369  0.2738057470368744  0.9875531583966364   T   T   T
  0.2532850850460662  0.2554271681773628  0.9941626686346794   T   T   T
  0.7876409058626663  0.4856465109524635  0.6571943601619310   T   T   T
  0.2741734721125866  0.8433664435707229  0.3209520260848748   T   T   T
  0.3223362934714160  0.4898371288897181  0.6508196934419743   T   T   T
  0.2771690389618513  0.8472998782750523  0.8177886423750209   T   T   T
  0.7534740364635581  0.6024334422427273  0.1537752921282021   T   T   T
  0.1267854665994719  0.8715695638001364  0.1156344916095620   T   T   T
  0.6784578883993717  0.4541984902180829  0.4468885586188307   T   T   T
  0.9142446565802942  0.6342098493407562  0.7826380741327412   T   T   T
  0.2431566461443424  0.7226525971630195  0.0238218649768314   T   T   T
  0.8665542824989814  0.9611706349614479  0.1571956219756956   T   T   T
  0.1776489756731792  0.4598261667309629  0.8222289147861730   T   T   T
  0.7962308673779077  0.5666711478726185  0.4895414421886244   T   T   T
  0.7902909781821279  0.3209528806849988  0.3531974762278409   T   T   T
  0.2421981247438865  0.9939284378655344  0.1560078700884091   T   T   T
  0.7961433968035436  0.4355087427164577  0.8216460472276097   T   T   T
  0.4251137667150076  0.5255091906463889  0.4893951065539355   T   T   T
  0.8002968150473677  0.9599574160217657  0.6932975795270693   T   T   T
  0.7304211195588977  0.7720561565449202  0.9956029881218669   T   T   T
  0.3012974821277083  0.3108002970662866  0.3299327545642967   T   T   T
  0.2961930073446766  0.0097559200766142  0.6533219147519489   T   T   T
 
  0.00000000E+00  0.00000000E+00  0.00000000E+00
  0.00000000E+00  0.00000000E+00  0.00000000E+00
  0.00000000E+00  0.00000000E+00  0.00000000E+00
  0.00000000E+00  0.00000000E+00  0.00000000E+00
  0.00000000E+00  0.00000000E+00  0.00000000E+00
  0.00000000E+00  0.00000000E+00  0.00000000E+00
  0.00000000E+00  0.00000000E+00  0.00000000E+00
  0.00000000E+00  0.00000000E+00  0.00000000E+00
  0.00000000E+00  0.00000000E+00  0.00000000E+00
  0.00000000E+00  0.00000000E+00  0.00000000E+00
  0.00000000E+00  0.00000000E+00  0.00000000E+00
  0.00000000E+00  0.00000000E+00  0.00000000E+00
  0.00000000E+00  0.00000000E+00  0.00000000E+00
  0.00000000E+00  0.00000000E+00  0.00000000E+00
  0.00000000E+00  0.00000000E+00  0.00000000E+00
  0.00000000E+00  0.00000000E+00  0.00000000E+00
  0.00000000E+00  0.00000000E+00  0.00000000E+00
  0.00000000E+00  0.00000000E+00  0.00000000E+00
  0.00000000E+00  0.00000000E+00  0.00000000E+00
  0.00000000E+00  0.00000000E+00  0.00000000E+00
  0.00000000E+00  0.00000000E+00  0.00000000E+00
  0.00000000E+00  0.00000000E+00  0.00000000E+00
  0.00000000E+00  0.00000000E+00  0.00000000E+00
  0.00000000E+00  0.00000000E+00  0.00000000E+00
