Primitive Cell                          
   1.00000000000000     
     5.0094433758869927   -0.0219331104707794    0.2383122596657489
    -0.0355675308221364    5.7682504854599195    0.4624029236002742
     2.4140174000378098    0.7002396118974142    5.8962358940621815
   Li   C    O    F 
     6     2     6     2
Selective dynamics
Direct
  0.5939880579371746  0.9783874730048296  0.6724391993208130   T   T   T
  0.4060119420628254  0.0216125269951704  0.3275608006791870   T   T   T
  0.4967223886207890  0.5986586956361748  0.1637216018928314   T   T   T
  0.9622315711458569  0.2940561670566026  0.2962609206425881   T   T   T
  0.0377684288541431  0.7059438329433974  0.7037390793574119   T   T   T
  0.5032776113792110  0.4013413043638252  0.8362783981071686   T   T   T
  0.9263104382065848  0.7756119665420584  0.2967365890376854   T   T   T
  0.0736895617934152  0.2243880334579416  0.7032634109623217   T   T   T
  0.1688301991300847  0.3956941524643440  0.7640184092330742   T   T   T
  0.8387842632622764  0.2394246526574335  0.6633747188030981   T   T   T
  0.2150508685396773  0.0350361779538062  0.6746212288822306   T   T   T
  0.7849491314603227  0.9649638220461938  0.3253787711177694   T   T   T
  0.8311698008699153  0.6043058475356560  0.2359815907669258   T   T   T
  0.1612157367377236  0.7605753473425665  0.3366252811969019   T   T   T
  0.3696743452101003  0.2961594943868207  0.1625636016074168   T   T   T
  0.6303256547898997  0.7038405056131793  0.8374363983925832   T   T   T
 
  0.00000000E+00  0.00000000E+00  0.00000000E+00
  0.00000000E+00  0.00000000E+00  0.00000000E+00
  0.00000000E+00  0.00000000E+00  0.00000000E+00
  0.00000000E+00  0.00000000E+00  0.00000000E+00
  0.00000000E+00  0.00000000E+00  0.00000000E+00
  0.00000000E+00  0.00000000E+00  0.00000000E+00
  0.00000000E+00  0.00000000E+00  0.00000000E+00
  0.00000000E+00  0.00000000E+00  0.00000000E+00
  0.00000000E+00  0.00000000E+00  0.00000000E+00
  0.00000000E+00  0.00000000E+00  0.00000000E+00
  0.00000000E+00  0.00000000E+00  0.00000000E+00
  0.00000000E+00  0.00000000E+00  0.00000000E+00
  0.00000000E+00  0.00000000E+00  0.00000000E+00
  0.00000000E+00  0.00000000E+00  0.00000000E+00
  0.00000000E+00  0.00000000E+00  0.00000000E+00
  0.00000000E+00  0.00000000E+00  0.00000000E+00
