Primitive Cell                          
   1.00000000000000     
     7.2087506241742458    0.0000000000000000    0.0000000000000000
     0.0000000000000000    3.1976057831611424    0.1104919194363278
     0.0000000000000000    0.5375751303467446    7.2901787017945470
   Li   C    O    F 
     6     2     6     2
Selective dynamics
Direct
  0.9366654582887008  0.0949648112490493  0.2066781842599070   T   T   T
  0.2500000000000000  0.4827443813425631  0.4725373602670331   T   T   T
  0.4366654582887008  0.9050351887509507  0.7933218157400930   T   T   T
  0.0633345417112992  0.9050351887509507  0.7933218157400930   T   T   T
  0.5633345417112992  0.0949648112490493  0.2066781842599070   T   T   T
  0.7500000000000000  0.5172556186574369  0.5274626397329669   T   T   T
  0.7500000000000000  0.3330309492105386  0.8491558759261224   T   T   T
  0.2500000000000000  0.6669690507894614  0.1508441240738776   T   T   T
  0.4053663522037141  0.5814115706442138  0.2407170196388932   T   T   T
  0.7500000000000000  0.1560914530585862  0.0141719803721614   T   T   T
  0.9053663522037141  0.4185884293557862  0.7592829803611068   T   T   T
  0.5946336477962859  0.4185884293557862  0.7592829803611068   T   T   T
  0.2500000000000000  0.8439085469414138  0.9858280196278386   T   T   T
  0.0946336477962859  0.5814115706442138  0.2407170196388932   T   T   T
  0.2500000000000000  0.9505518028944948  0.6058646035034201   T   T   T
  0.7500000000000000  0.0494481971054981  0.3941353964965799   T   T   T
 
  0.00000000E+00  0.00000000E+00  0.00000000E+00
  0.00000000E+00  0.00000000E+00  0.00000000E+00
  0.00000000E+00  0.00000000E+00  0.00000000E+00
  0.00000000E+00  0.00000000E+00  0.00000000E+00
  0.00000000E+00  0.00000000E+00  0.00000000E+00
  0.00000000E+00  0.00000000E+00  0.00000000E+00
  0.00000000E+00  0.00000000E+00  0.00000000E+00
  0.00000000E+00  0.00000000E+00  0.00000000E+00
  0.00000000E+00  0.00000000E+00  0.00000000E+00
  0.00000000E+00  0.00000000E+00  0.00000000E+00
  0.00000000E+00  0.00000000E+00  0.00000000E+00
  0.00000000E+00  0.00000000E+00  0.00000000E+00
  0.00000000E+00  0.00000000E+00  0.00000000E+00
  0.00000000E+00  0.00000000E+00  0.00000000E+00
  0.00000000E+00  0.00000000E+00  0.00000000E+00
  0.00000000E+00  0.00000000E+00  0.00000000E+00
