Primitive Cell                          
   1.00000000000000     
     4.8174811278377785   -0.4200278147162380    0.2981069592189958
     0.8031680093026375    5.7608536734724902    0.4521603134750680
     2.5270315304990878    2.1322035330603852    6.1656786658232061
   Li   C    O    F 
     6     2     6     2
Selective dynamics
Direct
  0.2460275065374162  0.4787357620518904  0.8488911110127546   T   T   T
  0.7539724934625838  0.5212642379481096  0.1511088889872383   T   T   T
  0.8465478851737274  0.1550187361519946  0.8778532225881719   T   T   T
  0.8443334382333489  0.7696773993125703  0.6282651523615499   T   T   T
  0.1534521148262726  0.8449812638480054  0.1221467774118281   T   T   T
  0.1556665617666511  0.2303226006874297  0.3717348476384501   T   T   T
  0.4864546209525855  0.8190026210547074  0.3678744796336062   T   T   T
  0.5135453790474145  0.1809973789452926  0.6321255203663938   T   T   T
  0.2265430507016504  0.8845409421418324  0.3608904160428281   T   T   T
  0.7734569492983496  0.1154590578581676  0.6391095839571719   T   T   T
  0.2861312892281873  0.1458580549614155  0.8245773084436081   T   T   T
  0.5167263628944099  0.7204843436019246  0.5586018631019911   T   T   T
  0.7138687107718127  0.8541419450385845  0.1754226915563919   T   T   T
  0.4832736371055901  0.2795156563980754  0.4413981368980089   T   T   T
  0.8332486449171839  0.4815075757860114  0.8835435651625758   T   T   T
  0.1667513550828161  0.5184924242139886  0.1164564348374242   T   T   T
 
  0.00000000E+00  0.00000000E+00  0.00000000E+00
  0.00000000E+00  0.00000000E+00  0.00000000E+00
  0.00000000E+00  0.00000000E+00  0.00000000E+00
  0.00000000E+00  0.00000000E+00  0.00000000E+00
  0.00000000E+00  0.00000000E+00  0.00000000E+00
  0.00000000E+00  0.00000000E+00  0.00000000E+00
  0.00000000E+00  0.00000000E+00  0.00000000E+00
  0.00000000E+00  0.00000000E+00  0.00000000E+00
  0.00000000E+00  0.00000000E+00  0.00000000E+00
  0.00000000E+00  0.00000000E+00  0.00000000E+00
  0.00000000E+00  0.00000000E+00  0.00000000E+00
  0.00000000E+00  0.00000000E+00  0.00000000E+00
  0.00000000E+00  0.00000000E+00  0.00000000E+00
  0.00000000E+00  0.00000000E+00  0.00000000E+00
  0.00000000E+00  0.00000000E+00  0.00000000E+00
  0.00000000E+00  0.00000000E+00  0.00000000E+00
