Primitive Cell                          
   1.00000000000000     
     2.8712837716501349   -0.0887554313748786   -0.3878382556906003
    -0.0069672091908124    5.1982948935940705   -0.9220140526834389
     0.7301522037993650    0.8681530358387082    4.6082549792143075
   Li   C    O    F 
     3     1     3     1
Selective dynamics
Direct
  0.9310851395964406  0.6515456169817639  0.8912242213925836   T   T   T
  0.4182072556636740  0.1723470205768365  0.9176100716762292   T   T   T
  0.9037934073270364  0.9685971186334328  0.4087030972727348   T   T   T
  0.4136960074835159  0.4672467023224556  0.3945895415236507   T   T   T
  0.4067828121141019  0.2447303413414517  0.5163929567709573   T   T   T
  0.4128061229829996  0.6731833691051321  0.5459836478487787   T   T   T
  0.4216159650678080  0.4842961950254221  0.1216896497693156   T   T   T
  0.9136213712614705  0.9787573112178620  0.0119456598239367   T   T   T
 
  0.00000000E+00  0.00000000E+00  0.00000000E+00
  0.00000000E+00  0.00000000E+00  0.00000000E+00
  0.00000000E+00  0.00000000E+00  0.00000000E+00
  0.00000000E+00  0.00000000E+00  0.00000000E+00
  0.00000000E+00  0.00000000E+00  0.00000000E+00
  0.00000000E+00  0.00000000E+00  0.00000000E+00
  0.00000000E+00  0.00000000E+00  0.00000000E+00
  0.00000000E+00  0.00000000E+00  0.00000000E+00
