Primitive Cell                          
   1.00000000000000     
     4.9908454430233267    0.0054335151243114   -0.4175893497283686
     0.0049211516606030    5.8406214919161537    0.1041382121789121
     0.4398678017756065    2.9025979819638161    5.6604145031613529
   Li   C    O    F 
     6     2     6     2
Selective dynamics
Direct
  0.0611951964126760  0.2450260071549124  0.8377429556895564   T   T   T
  0.4359732301784689  0.0534842796961499  0.1879409042853553   T   T   T
  0.4365473630477581  0.5697226469297547  0.1845820739270465   T   T   T
  0.9261157592563478  0.2291019537079819  0.3469112129788527   T   T   T
  0.4549387174780009  0.0757499500236776  0.6639543764400884   T   T   T
  0.0610410994770163  0.7259520158757411  0.8366594651512358   T   T   T
  0.9232360734128946  0.7967431716854492  0.2157627860038147   T   T   T
  0.5757269875204543  0.5024743865161057  0.8046164705303269   T   T   T
  0.4462772300559124  0.6836617653120811  0.8277266072250811   T   T   T
  0.8281395946388272  0.5189963984822086  0.7711261509032212   T   T   T
  0.4450758016692191  0.2988297675719522  0.8267966037593055   T   T   T
  0.0533112005310628  0.9991928137630381  0.1987249130477764   T   T   T
  0.0538334203872282  0.6148775308294177  0.1936321050284846   T   T   T
  0.6700631662366021  0.7818505546773906  0.2440310435613711   T   T   T
  0.5489889260435206  0.2279053486520510  0.3482996435156949   T   T   T
  0.0573306742554962  0.0792783388767617  0.6577634801379091   T   T   T
 
  0.00000000E+00  0.00000000E+00  0.00000000E+00
  0.00000000E+00  0.00000000E+00  0.00000000E+00
  0.00000000E+00  0.00000000E+00  0.00000000E+00
  0.00000000E+00  0.00000000E+00  0.00000000E+00
  0.00000000E+00  0.00000000E+00  0.00000000E+00
  0.00000000E+00  0.00000000E+00  0.00000000E+00
  0.00000000E+00  0.00000000E+00  0.00000000E+00
  0.00000000E+00  0.00000000E+00  0.00000000E+00
  0.00000000E+00  0.00000000E+00  0.00000000E+00
  0.00000000E+00  0.00000000E+00  0.00000000E+00
  0.00000000E+00  0.00000000E+00  0.00000000E+00
  0.00000000E+00  0.00000000E+00  0.00000000E+00
  0.00000000E+00  0.00000000E+00  0.00000000E+00
  0.00000000E+00  0.00000000E+00  0.00000000E+00
  0.00000000E+00  0.00000000E+00  0.00000000E+00
  0.00000000E+00  0.00000000E+00  0.00000000E+00
