Primitive Cell                          
   1.00000000000000     
     4.9769246876536046   -0.0231032011009632   -0.3171515342648511
    -0.0770997941986384    5.8286333913309702   -0.0404656748580076
    -2.2147819134773239   -1.2670384896672344    6.1249621137536305
   Li   C    O    F 
     6     2     6     2
Selective dynamics
Direct
  0.4857632410148511  0.6335440182917793  0.3645135220725848   T   T   T
  0.5142367589851560  0.3664559817082207  0.6354864779274152   T   T   T
  0.8508950542569096  0.3074206046148973  0.3380898422702572   T   T   T
  0.6446436483292430  0.9768111962681587  0.8622123121709535   T   T   T
  0.3553563516707570  0.0231888037318413  0.1377876878290465   T   T   T
  0.1491049457430904  0.6925793953851027  0.6619101577297428   T   T   T
  0.0659561144064540  0.1989433418836839  0.7585930254747097   T   T   T
  0.9340438855935460  0.8010566581163161  0.2414069745252831   T   T   T
  0.8667834157850294  0.6560485745886595  0.3457373853480235   T   T   T
  0.8336937955531667  0.2145630877218849  0.7972777301999656   T   T   T
  0.1332165842149706  0.3439514254113405  0.6542626146519765   T   T   T
  0.2364727924285361  0.0359758408782866  0.8218240839320288   T   T   T
  0.1663062044468333  0.7854369122781151  0.2027222698000344   T   T   T
  0.7635272075714639  0.9640241591217134  0.1781759160679712   T   T   T
  0.4623793018353624  0.3078527805572833  0.3319547764111235   T   T   T
  0.5376206981646376  0.6921472194427167  0.6680452235888765   T   T   T
 
  0.00000000E+00  0.00000000E+00  0.00000000E+00
  0.00000000E+00  0.00000000E+00  0.00000000E+00
  0.00000000E+00  0.00000000E+00  0.00000000E+00
  0.00000000E+00  0.00000000E+00  0.00000000E+00
  0.00000000E+00  0.00000000E+00  0.00000000E+00
  0.00000000E+00  0.00000000E+00  0.00000000E+00
  0.00000000E+00  0.00000000E+00  0.00000000E+00
  0.00000000E+00  0.00000000E+00  0.00000000E+00
  0.00000000E+00  0.00000000E+00  0.00000000E+00
  0.00000000E+00  0.00000000E+00  0.00000000E+00
  0.00000000E+00  0.00000000E+00  0.00000000E+00
  0.00000000E+00  0.00000000E+00  0.00000000E+00
  0.00000000E+00  0.00000000E+00  0.00000000E+00
  0.00000000E+00  0.00000000E+00  0.00000000E+00
  0.00000000E+00  0.00000000E+00  0.00000000E+00
  0.00000000E+00  0.00000000E+00  0.00000000E+00
