Primitive Cell                          
   1.00000000000000     
     2.7923003048779589    0.6861493285668773   -0.0051162877904492
     1.4990078515850833    5.7852873203110198   -0.1195742644233600
     0.4790900565782356    0.2361249217724586   14.2051417641421658
   Li   C    O    F 
     9     3     9     3
Selective dynamics
Direct
  0.7579140290580497  0.7289263702891020  0.1929392609533664   T   T   T
  0.0398176734100844  0.4145050085930180  0.3658731587658650   T   T   T
  0.7628566768858320  0.2072734643208349  0.8677110720682251   T   T   T
  0.7561755985983751  0.7291104939718025  0.8595782596455805   T   T   T
  0.7631569151102084  0.2072859009605992  0.5344545242338015   T   T   T
  0.7634438108075869  0.2071078191957554  0.2010591139475082   T   T   T
  0.7563587658631619  0.7291267317133645  0.5261205657633639   T   T   T
  0.0387854334731585  0.4148017498674292  0.6991566656492125   T   T   T
  0.0417098720234961  0.4141137786259108  0.0324775918979725   T   T   T
  0.0477787631535591  0.9130367045086132  0.0265907346952261   T   T   T
  0.0494389696198283  0.9129630274643290  0.3599888386608825   T   T   T
  0.0481298882173107  0.9130971728453119  0.6932480658251947   T   T   T
  0.0799058852881700  0.8964673816637756  0.9354363922205664   T   T   T
  0.8059709411721698  0.1356869773787608  0.0676372378633374   T   T   T
  0.8070143706471100  0.1355666203514687  0.7342939879915633   T   T   T
  0.8081715049992511  0.1355713925526203  0.4009865570247442   T   T   T
  0.0815405875399833  0.8962435625129217  0.2688559797720629   T   T   T
  0.2556186814292118  0.7065185255611937  0.0768423744624016   T   T   T
  0.2556195628180831  0.7065569003662304  0.7434714169243648   T   T   T
  0.2573688053037060  0.7060539094301674  0.4101463187046548   T   T   T
  0.0801867563300149  0.8964696392442377  0.6020912196519674   T   T   T
  0.0654701490643816  0.4026818885961490  0.8996771058147885   T   T   T
  0.0660366447397891  0.4025318738475292  0.2330535471591588   T   T   T
  0.0656755710940047  0.4027751816122773  0.5662987438914300   T   T   T
 
  0.00000000E+00  0.00000000E+00  0.00000000E+00
  0.00000000E+00  0.00000000E+00  0.00000000E+00
  0.00000000E+00  0.00000000E+00  0.00000000E+00
  0.00000000E+00  0.00000000E+00  0.00000000E+00
  0.00000000E+00  0.00000000E+00  0.00000000E+00
  0.00000000E+00  0.00000000E+00  0.00000000E+00
  0.00000000E+00  0.00000000E+00  0.00000000E+00
  0.00000000E+00  0.00000000E+00  0.00000000E+00
  0.00000000E+00  0.00000000E+00  0.00000000E+00
  0.00000000E+00  0.00000000E+00  0.00000000E+00
  0.00000000E+00  0.00000000E+00  0.00000000E+00
  0.00000000E+00  0.00000000E+00  0.00000000E+00
  0.00000000E+00  0.00000000E+00  0.00000000E+00
  0.00000000E+00  0.00000000E+00  0.00000000E+00
  0.00000000E+00  0.00000000E+00  0.00000000E+00
  0.00000000E+00  0.00000000E+00  0.00000000E+00
  0.00000000E+00  0.00000000E+00  0.00000000E+00
  0.00000000E+00  0.00000000E+00  0.00000000E+00
  0.00000000E+00  0.00000000E+00  0.00000000E+00
  0.00000000E+00  0.00000000E+00  0.00000000E+00
  0.00000000E+00  0.00000000E+00  0.00000000E+00
  0.00000000E+00  0.00000000E+00  0.00000000E+00
  0.00000000E+00  0.00000000E+00  0.00000000E+00
  0.00000000E+00  0.00000000E+00  0.00000000E+00
