Primitive Cell                          
   1.00000000000000     
     4.8243022530364748    0.4068321000454335    0.2343719705916875
     1.8516132248016066    6.6076878383574948    1.2577692734373718
     1.6139945233154265    3.0045903834146697    5.8811561081090042
   Li   C    O    F 
     6     2     6     2
Selective dynamics
Direct
  0.4025431641699484  0.5246809563698349  0.3261611803839060   T   T   T
  0.5974568358300516  0.4753190436301651  0.6738388196160940   T   T   T
  0.0267069951940613  0.2293804695733002  0.3985914766104059   T   T   T
  0.7769419860100371  0.8434178583262195  0.0328983880358251   T   T   T
  0.9732930048059387  0.7706195304266998  0.6014085233895941   T   T   T
  0.2230580139899629  0.1565821416737805  0.9671016119641820   T   T   T
  0.3550290441317401  0.8199090432382690  0.8128924497228311   T   T   T
  0.6449709558682599  0.1800909567617381  0.1871075502771689   T   T   T
  0.0887601797815236  0.8878650606041489  0.7524579548733143   T   T   T
  0.9112398202184764  0.1121349393958511  0.2475420451266857   T   T   T
  0.4234104429182821  0.2798513995438299  0.2789674167508664   T   T   T
  0.3874970371920767  0.8532313701936403  0.9725413033308925   T   T   T
  0.5765895570817179  0.7201486004561701  0.7210325832491336   T   T   T
  0.6125029628079233  0.1467686298063597  0.0274586966691075   T   T   T
  0.7814855232564426  0.5214464473119733  0.3627988641816415   T   T   T
  0.2185144767435574  0.4785535526880267  0.6372011358183585   T   T   T
 
  0.00000000E+00  0.00000000E+00  0.00000000E+00
  0.00000000E+00  0.00000000E+00  0.00000000E+00
  0.00000000E+00  0.00000000E+00  0.00000000E+00
  0.00000000E+00  0.00000000E+00  0.00000000E+00
  0.00000000E+00  0.00000000E+00  0.00000000E+00
  0.00000000E+00  0.00000000E+00  0.00000000E+00
  0.00000000E+00  0.00000000E+00  0.00000000E+00
  0.00000000E+00  0.00000000E+00  0.00000000E+00
  0.00000000E+00  0.00000000E+00  0.00000000E+00
  0.00000000E+00  0.00000000E+00  0.00000000E+00
  0.00000000E+00  0.00000000E+00  0.00000000E+00
  0.00000000E+00  0.00000000E+00  0.00000000E+00
  0.00000000E+00  0.00000000E+00  0.00000000E+00
  0.00000000E+00  0.00000000E+00  0.00000000E+00
  0.00000000E+00  0.00000000E+00  0.00000000E+00
  0.00000000E+00  0.00000000E+00  0.00000000E+00
