Primitive Cell                          
   1.00000000000000     
     4.9682129678759832    0.0699586684814711   -0.1109911316627256
    -0.1977608739482873    5.6304378893335363    0.8205526643549341
    -2.2140399443244410    0.5791608549577130    6.2129130053392272
   Li   C    O    F 
     6     2     6     2
Selective dynamics
Direct
  0.3327821068831724  0.7181851745398902  0.3485829552107162   T   T   T
  0.9840340286385043  0.0734566024309942  0.8443759807266602   T   T   T
  0.5909225006035470  0.3991513666988311  0.8330491742138406   T   T   T
  0.8859848554991601  0.6838467258266121  0.6201474660066992   T   T   T
  0.7702221074934243  0.9993275675466293  0.1665527221269372   T   T   T
  0.2342378959250979  0.3187181983888436  0.1305651981432163   T   T   T
  0.4078565889495138  0.9100611845568665  0.7207570398372170   T   T   T
  0.8067380598132274  0.4895916433035552  0.2538288617957747   T   T   T
  0.6356748061110196  0.3400238145492409  0.1540591623747787   T   T   T
  0.0779544470525551  0.4696020366836819  0.2954660365373911   T   T   T
  0.6972973192745258  0.6617699904835987  0.3083925557013671   T   T   T
  0.1353906135267948  0.9306885047532134  0.6769973131688758   T   T   T
  0.5158122380784533  0.7430162342112396  0.6594486969999949   T   T   T
  0.5798366410430589  0.0526367547590780  0.8270797114737505   T   T   T
  0.9855279321047021  0.4008954815244294  0.8286870526387347   T   T   T
  0.1438512274927817  0.9966073267807971  0.1583257113858281   T   T   T
 
  0.00000000E+00  0.00000000E+00  0.00000000E+00
  0.00000000E+00  0.00000000E+00  0.00000000E+00
  0.00000000E+00  0.00000000E+00  0.00000000E+00
  0.00000000E+00  0.00000000E+00  0.00000000E+00
  0.00000000E+00  0.00000000E+00  0.00000000E+00
  0.00000000E+00  0.00000000E+00  0.00000000E+00
  0.00000000E+00  0.00000000E+00  0.00000000E+00
  0.00000000E+00  0.00000000E+00  0.00000000E+00
  0.00000000E+00  0.00000000E+00  0.00000000E+00
  0.00000000E+00  0.00000000E+00  0.00000000E+00
  0.00000000E+00  0.00000000E+00  0.00000000E+00
  0.00000000E+00  0.00000000E+00  0.00000000E+00
  0.00000000E+00  0.00000000E+00  0.00000000E+00
  0.00000000E+00  0.00000000E+00  0.00000000E+00
  0.00000000E+00  0.00000000E+00  0.00000000E+00
  0.00000000E+00  0.00000000E+00  0.00000000E+00
