Primitive Cell                          
   1.00000000000000     
     5.5096284543870553    0.7408066618180084    0.6828509308231326
    -0.7063526989894102    4.3207108537557160   -1.5574758625962524
    -0.9944154677237037   -4.1625197918988333   10.8972847112321176
   Li   C    O    F 
     9     3     9     3
Selective dynamics
Direct
  0.7635619053014864  0.6847099423863270  0.1469284980733647   T   T   T
  0.0751203867746710  0.7805242661857079  0.3798866284652505   T   T   T
  0.3219299777413198  0.3280526953158684  0.9113697717724918   T   T   T
  0.7601378778121202  0.0177137964532292  0.8140993648958101   T   T   T
  0.3266140341012402  0.6596039855497580  0.5774712880967030   T   T   T
  0.3273751008834367  0.9924195053461489  0.2438389323210615   T   T   T
  0.7649132616806398  0.3518768359159310  0.4806555685688920   T   T   T
  0.0713184528847961  0.4465182907016825  0.7133004851758926   T   T   T
  0.0686267606054471  0.1131081293650809  0.0465654297230245   T   T   T
  0.5643681491968593  0.0143176476214535  0.0378696765443962   T   T   T
  0.5710163963695365  0.6798055882885876  0.3711462622394350   T   T   T
  0.5676674397646337  0.3453688890779318  0.7044516065001787   T   T   T
  0.5719796260455325  0.2001383352901129  0.9883525597670300   T   T   T
  0.3573305023065600  0.8989728987979575  0.0537583768200278   T   T   T
  0.3605498798748812  0.2315001996626762  0.7210267188515047   T   T   T
  0.3641492868671108  0.5649078219112980  0.3875237415506803   T   T   T
  0.5774178406116093  0.8651151272483588  0.3213872363396959   T   T   T
  0.7606710352739867  0.9490761407582653  0.0725591471768183   T   T   T
  0.7638844766733470  0.2792136622467112  0.7387064238125944   T   T   T
  0.7676414664333393  0.6153466540063590  0.4058167588645958   T   T   T
  0.5750069566391360  0.5302251857656302  0.6544919143734731   T   T   T
  0.0674342420320002  0.9790606627730938  0.8565950763518870   T   T   T
  0.0712072558437455  0.6458240473596746  0.1894612784910734   T   T   T
  0.0720001117453606  0.3122282790230599  0.5231373809768058   T   T   T
 
  0.00000000E+00  0.00000000E+00  0.00000000E+00
  0.00000000E+00  0.00000000E+00  0.00000000E+00
  0.00000000E+00  0.00000000E+00  0.00000000E+00
  0.00000000E+00  0.00000000E+00  0.00000000E+00
  0.00000000E+00  0.00000000E+00  0.00000000E+00
  0.00000000E+00  0.00000000E+00  0.00000000E+00
  0.00000000E+00  0.00000000E+00  0.00000000E+00
  0.00000000E+00  0.00000000E+00  0.00000000E+00
  0.00000000E+00  0.00000000E+00  0.00000000E+00
  0.00000000E+00  0.00000000E+00  0.00000000E+00
  0.00000000E+00  0.00000000E+00  0.00000000E+00
  0.00000000E+00  0.00000000E+00  0.00000000E+00
  0.00000000E+00  0.00000000E+00  0.00000000E+00
  0.00000000E+00  0.00000000E+00  0.00000000E+00
  0.00000000E+00  0.00000000E+00  0.00000000E+00
  0.00000000E+00  0.00000000E+00  0.00000000E+00
  0.00000000E+00  0.00000000E+00  0.00000000E+00
  0.00000000E+00  0.00000000E+00  0.00000000E+00
  0.00000000E+00  0.00000000E+00  0.00000000E+00
  0.00000000E+00  0.00000000E+00  0.00000000E+00
  0.00000000E+00  0.00000000E+00  0.00000000E+00
  0.00000000E+00  0.00000000E+00  0.00000000E+00
  0.00000000E+00  0.00000000E+00  0.00000000E+00
  0.00000000E+00  0.00000000E+00  0.00000000E+00
