Primitive Cell                          
   1.00000000000000     
     3.1750192378020130    0.0755459651401283    0.0193485491335143
     0.1167278492589799    4.7402599216214023    0.0287326728729278
     0.2383563475756228    0.0710184356858237    5.1805767186174547
   Li   C    O    F 
     3     1     3     1
Selective dynamics
Direct
  0.2771997131957207  0.8859346200701737  0.4313661249389824   T   T   T
  0.7606479936164519  0.8691916532764665  0.9519461172983483   T   T   T
  0.2851959232105656  0.3609904018253616  0.7789900658458535   T   T   T
  0.6675925620464511  0.3455241111605005  0.2412408259005332   T   T   T
  0.4874937630756264  0.4904659577077766  0.4265583234048336   T   T   T
  0.7500861081060108  0.4613718778062292  0.0134902005552320   T   T   T
  0.7599862128911141  0.0757538449938693  0.2740139721554087   T   T   T
  0.2641697694941243  0.9615515134168078  0.7796273420134909   T   T   T
 
  0.00000000E+00  0.00000000E+00  0.00000000E+00
  0.00000000E+00  0.00000000E+00  0.00000000E+00
  0.00000000E+00  0.00000000E+00  0.00000000E+00
  0.00000000E+00  0.00000000E+00  0.00000000E+00
  0.00000000E+00  0.00000000E+00  0.00000000E+00
  0.00000000E+00  0.00000000E+00  0.00000000E+00
  0.00000000E+00  0.00000000E+00  0.00000000E+00
  0.00000000E+00  0.00000000E+00  0.00000000E+00
