Primitive Cell                          
   1.00000000000000     
     4.7218455211167507   -0.0029350803933612    0.1419754946872402
     0.0156124046729601    5.9722582235846113    0.5766189032345497
    -0.1469371166604642   -1.6122297172687656    2.3792335545576480
   Li   C    O    F 
     3     1     3     1
Selective dynamics
Direct
  0.3638641143912977  0.7069452333359507  0.7707959940480791   T   T   T
  0.8437674972298694  0.0243148452804647  0.0742968160059547   T   T   T
  0.3358817026249596  0.2277128645627116  0.7879453946561910   T   T   T
  0.8596746805965836  0.5233931397686362  0.0726809383391895   T   T   T
  0.1337051051173077  0.5393225987898589  0.0958952418118955   T   T   T
  0.7369934976218531  0.3011445518358258  0.8499519100619324   T   T   T
  0.7081811534056612  0.7301006154637619  0.2712807680653881   T   T   T
  0.2404004627815013  0.0340228047443389  0.0908849177653295   T   T   T
 
  0.00000000E+00  0.00000000E+00  0.00000000E+00
  0.00000000E+00  0.00000000E+00  0.00000000E+00
  0.00000000E+00  0.00000000E+00  0.00000000E+00
  0.00000000E+00  0.00000000E+00  0.00000000E+00
  0.00000000E+00  0.00000000E+00  0.00000000E+00
  0.00000000E+00  0.00000000E+00  0.00000000E+00
  0.00000000E+00  0.00000000E+00  0.00000000E+00
  0.00000000E+00  0.00000000E+00  0.00000000E+00
