Primitive Cell                          
   1.00000000000000     
     4.9607830061184712    0.0148287374867949   -0.1024509945362121
     0.0092930306737465    5.2745011437334641   -0.3740089153264781
    -0.0544421634252200   -0.4616488391835719    6.3428044546602305
   Li   C    O    F 
     6     2     6     2
Selective dynamics
Direct
  0.8103986739693241  0.0701018596534695  0.3647837717149685   T   T   T
  0.6794149476660252  0.6138513449619509  0.6427264810575366   T   T   T
  0.7954677926474503  0.5552517933900134  0.1372836193661442   T   T   T
  0.3205850523339819  0.3861486550380491  0.3572735189424634   T   T   T
  0.1896013260306759  0.9298981403465305  0.6352162282850315   T   T   T
  0.2045322073525497  0.4447482066099937  0.8627163806338558   T   T   T
  0.3194729874044597  0.8395146567032228  0.2202286506560398   T   T   T
  0.6805270125955403  0.1604853432967772  0.7797713493439602   T   T   T
  0.5714824384843524  0.8528123395227851  0.1862833770647754   T   T   T
  0.1858344920867623  0.6292803971644574  0.1529800760294506   T   T   T
  0.1944052184311431  0.0314187181019037  0.3297113921262849   T   T   T
  0.4285175615156476  0.1471876604772149  0.8137166229352246   T   T   T
  0.8141655079132377  0.3707196028355426  0.8470199239705494   T   T   T
  0.8055947815688569  0.9685812818980963  0.6702886078737151   T   T   T
  0.2926255967490050  0.5944473281496556  0.6250825849852077   T   T   T
  0.7073744032509950  0.4055526718503444  0.3749174150147923   T   T   T
 
  0.00000000E+00  0.00000000E+00  0.00000000E+00
  0.00000000E+00  0.00000000E+00  0.00000000E+00
  0.00000000E+00  0.00000000E+00  0.00000000E+00
  0.00000000E+00  0.00000000E+00  0.00000000E+00
  0.00000000E+00  0.00000000E+00  0.00000000E+00
  0.00000000E+00  0.00000000E+00  0.00000000E+00
  0.00000000E+00  0.00000000E+00  0.00000000E+00
  0.00000000E+00  0.00000000E+00  0.00000000E+00
  0.00000000E+00  0.00000000E+00  0.00000000E+00
  0.00000000E+00  0.00000000E+00  0.00000000E+00
  0.00000000E+00  0.00000000E+00  0.00000000E+00
  0.00000000E+00  0.00000000E+00  0.00000000E+00
  0.00000000E+00  0.00000000E+00  0.00000000E+00
  0.00000000E+00  0.00000000E+00  0.00000000E+00
  0.00000000E+00  0.00000000E+00  0.00000000E+00
  0.00000000E+00  0.00000000E+00  0.00000000E+00
