Primitive Cell                          
   1.00000000000000     
     3.8812763542963751   -0.0026788741893614   -0.1176384125273079
     1.6866426518451005    5.9946114530239232   -0.1204933059730399
     0.0176573626386869    1.5072353419337998    6.2653552612454977
   Li   C    O    F 
     6     2     6     2
Selective dynamics
Direct
  0.0827427186416614  0.7938413887513320  0.6905922417357147   T   T   T
  0.9172572813583386  0.2061586112486680  0.3094077582642853   T   T   T
  0.4456872477638925  0.1536269375198245  0.6162659326413831   T   T   T
  0.6667782278233076  0.6527243830440739  0.9786640238956394   T   T   T
  0.5543127522361004  0.8463730624801755  0.3837340673586169   T   T   T
  0.3332217721766924  0.3472756169559261  0.0213359761043606   T   T   T
  0.0296624264034122  0.6973863252050236  0.2288449287200365   T   T   T
  0.9703375735965878  0.3026136747949764  0.7711550712799635   T   T   T
  0.8048998949986981  0.5820357421990394  0.2793913391883862   T   T   T
  0.1951001050013019  0.4179642578009606  0.7206086608116138   T   T   T
  0.9244011339729212  0.1635015966895921  0.6529023017392177   T   T   T
  0.1857134178093816  0.6825705478137891  0.0532007989806971   T   T   T
  0.0755988660270788  0.8364984033104008  0.3470976982607823   T   T   T
  0.8142865821906184  0.3174294521862109  0.9467992010193029   T   T   T
  0.5740102144904355  0.8166512143740761  0.6927529734574307   T   T   T
  0.4259897855095645  0.1833487856259239  0.3072470265425693   T   T   T
 
  0.00000000E+00  0.00000000E+00  0.00000000E+00
  0.00000000E+00  0.00000000E+00  0.00000000E+00
  0.00000000E+00  0.00000000E+00  0.00000000E+00
  0.00000000E+00  0.00000000E+00  0.00000000E+00
  0.00000000E+00  0.00000000E+00  0.00000000E+00
  0.00000000E+00  0.00000000E+00  0.00000000E+00
  0.00000000E+00  0.00000000E+00  0.00000000E+00
  0.00000000E+00  0.00000000E+00  0.00000000E+00
  0.00000000E+00  0.00000000E+00  0.00000000E+00
  0.00000000E+00  0.00000000E+00  0.00000000E+00
  0.00000000E+00  0.00000000E+00  0.00000000E+00
  0.00000000E+00  0.00000000E+00  0.00000000E+00
  0.00000000E+00  0.00000000E+00  0.00000000E+00
  0.00000000E+00  0.00000000E+00  0.00000000E+00
  0.00000000E+00  0.00000000E+00  0.00000000E+00
  0.00000000E+00  0.00000000E+00  0.00000000E+00
