Primitive Cell                          
   1.00000000000000     
     4.9078080885747362   -0.0000669425676917   -0.0036923082831582
     0.0001454788210460    5.2010478412442298   -0.0142682763324886
     0.0045960193652183    0.1061865562253592    6.0729813726717570
   Li   C    O    F 
     6     2     6     2
Selective dynamics
Direct
  0.6958604520994882  0.9887935713772293  0.3506301254787161   T   T   T
  0.5462574074437043  0.9887296376655570  0.8511064317224850   T   T   T
  0.0594871701745632  0.6699160791164189  0.7989745007831104   T   T   T
  0.5733616219257556  0.4702123913242815  0.0476780165574553   T   T   T
  0.1847540273549200  0.6707671801696833  0.2991899609574205   T   T   T
  0.6701540613133545  0.4705963272112754  0.5475491902845206   T   T   T
  0.0540398294290441  0.1724441007558681  0.0278072516370500   T   T   T
  0.1890667294787107  0.1749912209155724  0.5277555213380793   T   T   T
  0.1880075483500505  0.9617328349129153  0.9938193497326395   T   T   T
  0.4529595622560549  0.1635939727936631  0.5585129597316083   T   T   T
  0.1780559219075570  0.3929572860802608  0.0325567071037582   T   T   T
  0.0542364952226961  0.9650322089673935  0.4932515444251777   T   T   T
  0.7900300242340705  0.1622341988290330  0.0581660594176157   T   T   T
  0.0661822012264253  0.3962010972526997  0.5327688943454874   T   T   T
  0.6707708088657043  0.6620244183621153  0.8008983348263001   T   T   T
  0.5714836058086021  0.6621755426371791  0.3009353908340699   T   T   T
 
  0.00000000E+00  0.00000000E+00  0.00000000E+00
  0.00000000E+00  0.00000000E+00  0.00000000E+00
  0.00000000E+00  0.00000000E+00  0.00000000E+00
  0.00000000E+00  0.00000000E+00  0.00000000E+00
  0.00000000E+00  0.00000000E+00  0.00000000E+00
  0.00000000E+00  0.00000000E+00  0.00000000E+00
  0.00000000E+00  0.00000000E+00  0.00000000E+00
  0.00000000E+00  0.00000000E+00  0.00000000E+00
  0.00000000E+00  0.00000000E+00  0.00000000E+00
  0.00000000E+00  0.00000000E+00  0.00000000E+00
  0.00000000E+00  0.00000000E+00  0.00000000E+00
  0.00000000E+00  0.00000000E+00  0.00000000E+00
  0.00000000E+00  0.00000000E+00  0.00000000E+00
  0.00000000E+00  0.00000000E+00  0.00000000E+00
  0.00000000E+00  0.00000000E+00  0.00000000E+00
  0.00000000E+00  0.00000000E+00  0.00000000E+00
