Primitive Cell                          
   1.00000000000000     
     4.7398005632310483   -0.0025004664182037    0.0382166330053277
     2.3209369510994824    4.1883984060002488   -0.0261829539513421
     0.1776906790194369   -0.0268525489937569   14.9789119748996598
   Li   C    O    F 
    10     4    12     2
Selective dynamics
Direct
  0.9530910080964219  0.5608059869438051  0.3372549801951266   T   T   T
  0.6001890434446082  0.6019598640105599  0.9198848120028700   T   T   T
  0.6112785361973536  0.0911121526734320  0.0373307846659756   T   T   T
  0.6786336308417233  0.0520859732524031  0.6218047899281913   T   T   T
  0.9324465656241472  0.4192812423494416  0.1206373105689451   T   T   T
  0.9673934023554551  0.4019319417774483  0.5387283642483638   T   T   T
  0.5222456571579031  0.3180318633366426  0.2285652084871401   T   T   T
  0.8249463308237353  0.4633872830784327  0.7289060328211718   T   T   T
  0.3169211672666776  0.8905743957153547  0.4197444899387435   T   T   T
  0.9095386079386643  0.9399209681501191  0.8397195212592266   T   T   T
  0.6776800084508210  0.2228106027349384  0.3838869438816204   T   T   T
  0.2628200396740610  0.2436519200685083  0.8771053909296214   T   T   T
  0.2976604818773012  0.7250480400794643  0.0831452858176007   T   T   T
  0.3390360703022210  0.6981401060120120  0.5890822499907316   T   T   T
  0.5601939953451236  0.7143461304155139  0.0504698429284076   T   T   T
  0.6030793102763923  0.6880634413823259  0.6181585820490909   T   T   T
  0.4023167430021388  0.2549849396385753  0.3564466368532422   T   T   T
  0.5017054328324591  0.2611130813724643  0.9138193332550770   T   T   T
  0.6913850163363691  0.4586941284610759  0.4237298404143104   T   T   T
  0.0053718292855578  0.5009043472224448  0.8517526927034282   T   T   T
  0.3168673056506321  0.4593234527479169  0.1134546624485182   T   T   T
  0.3010012800223478  0.4504169266476268  0.5956818330644325   T   T   T
  0.9347957490617702  0.9570259321691807  0.3678939100703431   T   T   T
  0.2804445417959656  0.9700648330282888  0.8667795289651039   T   T   T
  0.0285260681163280  0.9852019186824705  0.0850738082521048   T   T   T
  0.1218451432746477  0.9530516702727283  0.5507971338399287   T   T   T
  0.7813834675484657  0.4958520141466636  0.2355954773347690   T   T   T
  0.8023858100642940  0.0982188599926914  0.7305801414827755   T   T   T
 
  0.00000000E+00  0.00000000E+00  0.00000000E+00
  0.00000000E+00  0.00000000E+00  0.00000000E+00
  0.00000000E+00  0.00000000E+00  0.00000000E+00
  0.00000000E+00  0.00000000E+00  0.00000000E+00
  0.00000000E+00  0.00000000E+00  0.00000000E+00
  0.00000000E+00  0.00000000E+00  0.00000000E+00
  0.00000000E+00  0.00000000E+00  0.00000000E+00
  0.00000000E+00  0.00000000E+00  0.00000000E+00
  0.00000000E+00  0.00000000E+00  0.00000000E+00
  0.00000000E+00  0.00000000E+00  0.00000000E+00
  0.00000000E+00  0.00000000E+00  0.00000000E+00
  0.00000000E+00  0.00000000E+00  0.00000000E+00
  0.00000000E+00  0.00000000E+00  0.00000000E+00
  0.00000000E+00  0.00000000E+00  0.00000000E+00
  0.00000000E+00  0.00000000E+00  0.00000000E+00
  0.00000000E+00  0.00000000E+00  0.00000000E+00
  0.00000000E+00  0.00000000E+00  0.00000000E+00
  0.00000000E+00  0.00000000E+00  0.00000000E+00
  0.00000000E+00  0.00000000E+00  0.00000000E+00
  0.00000000E+00  0.00000000E+00  0.00000000E+00
  0.00000000E+00  0.00000000E+00  0.00000000E+00
  0.00000000E+00  0.00000000E+00  0.00000000E+00
  0.00000000E+00  0.00000000E+00  0.00000000E+00
  0.00000000E+00  0.00000000E+00  0.00000000E+00
  0.00000000E+00  0.00000000E+00  0.00000000E+00
  0.00000000E+00  0.00000000E+00  0.00000000E+00
  0.00000000E+00  0.00000000E+00  0.00000000E+00
  0.00000000E+00  0.00000000E+00  0.00000000E+00
