Primitive Cell                          
   1.00000000000000     
     8.1301130537549415    1.4663458829803966   -0.2090991561388844
     3.5402406800637749    3.2605361542707803   -0.5839947070244399
     1.2428953516600110   -2.0879312388279074   20.4727143572379973
   Li   C    O    F 
    15     6    18     3
Selective dynamics
Direct
  0.6574581967697455  0.9557511907347234  0.6154701129463191   T   T   T
  0.3019783059034253  0.4969702097978370  0.5226707090187475   T   T   T
  0.9329948495663345  0.3937711539082187  0.8128647170320065   T   T   T
  0.4936517192089838  0.9181731972976621  0.2257958037847487   T   T   T
  0.4166530327958498  0.6776695490561693  0.0272020521780405   T   T   T
  0.5796273054665093  0.5484110232774668  0.5536430651090640   T   T   T
  0.4937949767169201  0.0224122068223380  0.7492826490670339   T   T   T
  0.5814555792564207  0.4580671117936816  0.8985388153937208   T   T   T
  0.4924587759071102  0.2982629986963659  0.3803966151154441   T   T   T
  0.9350380267636567  0.0211899870911409  0.6577685865387508   T   T   T
  0.0317566759853420  0.4173677838592909  0.4823867028522884   T   T   T
  0.0059176693013328  0.6384106482494545  0.0108639747902188   T   T   T
  0.9389366982138228  0.2799141966776588  0.2882885262578725   T   T   T
  0.7503916620233895  0.3974133947246372  0.4229368686378194   T   T   T
  0.8432526386783792  0.8543906082951409  0.1393067367962999   T   T   T
  0.3160687671384963  0.9282331093048413  0.6731365533109539   T   T   T
  0.4775657312794976  0.1026803814356256  0.0945805585224733   T   T   T
  0.9450096240496535  0.2135166286767145  0.9434846585526628   T   T   T
  0.7282113002692299  0.1389535815268275  0.2784999523506357   T   T   T
  0.7086344578847417  0.1558710902862686  0.7589391560045300   T   T   T
  0.1229027763917827  0.3630822293606784  0.3655024269191216   T   T   T
  0.6167153883978358  0.8223138233837304  0.1365395848837139   T   T   T
  0.1639320095910577  0.0429234614408713  0.9615759626828506   T   T   T
  0.5677608574615007  0.2029321880261321  0.0704153462232426   T   T   T
  0.2176396933321598  0.1859305507742022  0.3010739059297052   T   T   T
  0.8434370636647088  0.0868509399839823  0.2243347449552147   T   T   T
  0.8228755572909705  0.2361675734335762  0.7610347932321773   T   T   T
  0.2593845071190017  0.2720606770041343  0.0761650579158513   T   T   T
  0.8551276081492105  0.1128445869122316  0.9676854693116042   T   T   T
  0.9313321251516342  0.4612194681940096  0.3944122842455187   T   T   T
  0.5894801210196263  0.2125913029618189  0.8128716735055974   T   T   T
  0.1967175251573039  0.4646286730833395  0.4064514095066087   T   T   T
  0.5086772415196350  0.8317051207382846  0.6461370431892917   T   T   T
  0.7282325541931485  0.2804055610441409  0.3365763147843310   T   T   T
  0.6116844843707909  0.0627730435972254  0.2771930653307280   T   T   T
  0.8048399656759244  0.4954749540587002  0.9016861993638230   T   T   T
  0.7143337666597489  0.0073880935969441  0.7004393975802188   T   T   T
  0.2135089552422684  0.1129603564960959  0.7372492376717688   T   T   T
  0.2542671435446593  0.8061042352372212  0.6309297090537456   T   T   T
  0.9513671443071132  0.8127150232571907  0.5600226937588317   T   T   T
  0.4092931064788345  0.6527979517109372  0.4773149906818190   T   T   T
  0.6638248277531815  0.7648246676498900  0.5208598069841770   T   T   T
 
  0.00000000E+00  0.00000000E+00  0.00000000E+00
  0.00000000E+00  0.00000000E+00  0.00000000E+00
  0.00000000E+00  0.00000000E+00  0.00000000E+00
  0.00000000E+00  0.00000000E+00  0.00000000E+00
  0.00000000E+00  0.00000000E+00  0.00000000E+00
  0.00000000E+00  0.00000000E+00  0.00000000E+00
  0.00000000E+00  0.00000000E+00  0.00000000E+00
  0.00000000E+00  0.00000000E+00  0.00000000E+00
  0.00000000E+00  0.00000000E+00  0.00000000E+00
  0.00000000E+00  0.00000000E+00  0.00000000E+00
  0.00000000E+00  0.00000000E+00  0.00000000E+00
  0.00000000E+00  0.00000000E+00  0.00000000E+00
  0.00000000E+00  0.00000000E+00  0.00000000E+00
  0.00000000E+00  0.00000000E+00  0.00000000E+00
  0.00000000E+00  0.00000000E+00  0.00000000E+00
  0.00000000E+00  0.00000000E+00  0.00000000E+00
  0.00000000E+00  0.00000000E+00  0.00000000E+00
  0.00000000E+00  0.00000000E+00  0.00000000E+00
  0.00000000E+00  0.00000000E+00  0.00000000E+00
  0.00000000E+00  0.00000000E+00  0.00000000E+00
  0.00000000E+00  0.00000000E+00  0.00000000E+00
  0.00000000E+00  0.00000000E+00  0.00000000E+00
  0.00000000E+00  0.00000000E+00  0.00000000E+00
  0.00000000E+00  0.00000000E+00  0.00000000E+00
  0.00000000E+00  0.00000000E+00  0.00000000E+00
  0.00000000E+00  0.00000000E+00  0.00000000E+00
  0.00000000E+00  0.00000000E+00  0.00000000E+00
  0.00000000E+00  0.00000000E+00  0.00000000E+00
  0.00000000E+00  0.00000000E+00  0.00000000E+00
  0.00000000E+00  0.00000000E+00  0.00000000E+00
  0.00000000E+00  0.00000000E+00  0.00000000E+00
  0.00000000E+00  0.00000000E+00  0.00000000E+00
  0.00000000E+00  0.00000000E+00  0.00000000E+00
  0.00000000E+00  0.00000000E+00  0.00000000E+00
  0.00000000E+00  0.00000000E+00  0.00000000E+00
  0.00000000E+00  0.00000000E+00  0.00000000E+00
  0.00000000E+00  0.00000000E+00  0.00000000E+00
  0.00000000E+00  0.00000000E+00  0.00000000E+00
  0.00000000E+00  0.00000000E+00  0.00000000E+00
  0.00000000E+00  0.00000000E+00  0.00000000E+00
  0.00000000E+00  0.00000000E+00  0.00000000E+00
  0.00000000E+00  0.00000000E+00  0.00000000E+00
