Primitive Cell                          
   1.00000000000000     
     4.9173999855204160   -0.0395488405768269   -0.0196738662202667
     1.3378244231335090    6.4518484514196714    0.5479996142618411
    -0.0251607062869646    1.9121873738472832   19.8117035840685212
   Li   C    O    F 
    20     8    24     4
Selective dynamics
Direct
  0.4200961383537631  0.3571442876832478  0.0660670729544677   T   T   T
  0.9761279114857828  0.1058084584182382  0.5909851651172886   T   T   T
  0.5378592264004780  0.8437297555402594  0.3153273245422881   T   T   T
  0.0524883304785675  0.9150890323703393  0.8044036531684426   T   T   T
  0.9447843424803608  0.2792938882210336  0.0097780019161178   T   T   T
  0.4806331692915577  0.0891234175292723  0.5110902267868411   T   T   T
  0.0366732621660120  0.8359850725859985  0.2337103861639207   T   T   T
  0.5822126669630876  0.7415379135550282  0.7552295504403403   T   T   T
  0.5474205066415720  0.7790478757850678  0.0267683824794105   T   T   T
  0.0417831897269281  0.7822453019923401  0.5221825558062108   T   T   T
  0.0724377070661149  0.1349184593071797  0.3064341114527451   T   T   T
  0.4479461976552273  0.1995191185283289  0.7901645783142399   T   T   T
  0.0732841848331773  0.6370649462512574  0.1115220171115681   T   T   T
  0.5629934797560949  0.7946462243808270  0.6140121274072285   T   T   T
  0.4661327297054783  0.1387941951354179  0.2116504520144815   T   T   T
  0.9130048997724529  0.3504054178624258  0.7020120882298286   T   T   T
  0.4237866314429866  0.2947274183792601  0.3723242543856173   T   T   T
  0.9375937362651214  0.2837450988373433  0.8669006988141490   T   T   T
  0.5927015253317265  0.6176126802619066  0.4594624697040857   T   T   T
  0.1013293165194185  0.6732584132714123  0.9451922408991607   T   T   T
  0.9288709231527932  0.2399839964210386  0.1489275030689541   T   T   T
  0.4373144923496994  0.2124692341038781  0.6475945348176850   T   T   T
  0.5466503405082932  0.7597780270168357  0.1709158735310226   T   T   T
  0.0729823536997216  0.7381673351457323  0.6803673210741508   T   T   T
  0.0507249139326404  0.7393035374576584  0.3865633500266412   T   T   T
  0.5644550561281321  0.8280760157787768  0.8835919149634250   T   T   T
  0.9333033462129450  0.2137443266981265  0.4439067499697629   T   T   T
  0.4362163212269863  0.3055535909950962  0.9300801655401756   T   T   T
  0.0786263053614604  0.1038318389072117  0.4978180417254876   T   T   T
  0.5849013533727003  0.2593986648900071  0.9865229355014122   T   T   T
  0.1576439056757977  0.8170759785294095  0.3294656973967278   T   T   T
  0.6764987216412308  0.8814565766031635  0.8247745077006670   T   T   T
  0.6496918815515258  0.8228710396222212  0.2225713495694350   T   T   T
  0.2070981234792839  0.7651051772459567  0.7328959579646579   T   T   T
  0.0663993040027364  0.3128277896159872  0.0969762287759650   T   T   T
  0.5862829765041866  0.1080116624825536  0.6055622203126703   T   T   T
  0.0496950069946820  0.2563988264261425  0.3870442005323795   T   T   T
  0.5476896853016768  0.3090910631501487  0.8716916424604264   T   T   T
  0.2040632902599384  0.6756987198471833  0.4421642038302736   T   T   T
  0.7154169077164951  0.7783062717708162  0.9395363490737907   T   T   T
  0.6909783463813781  0.7461555101626658  0.1169342420623636   T   T   T
  0.1624464313691121  0.7838077640288077  0.6194823659338624   T   T   T
  0.0614498711628926  0.1546709850815589  0.2068377867506541   T   T   T
  0.5602686465435411  0.2677083841730195  0.6973242032209583   T   T   T
  0.6663487332332707  0.2783734019915585  0.4488402300611654   T   T   T
  0.1639273192463975  0.3509658903530166  0.9335722311939207   T   T   T
  0.7928728133070635  0.7298919249277347  0.3864035727436459   T   T   T
  0.3023843166806586  0.8289583746619158  0.8836078428382521   T   T   T
  0.3017541108943576  0.7165699949873314  0.1741672653233906   T   T   T
  0.8409769829964873  0.6678193342875858  0.6885463713909701   T   T   T
  0.6671610887870472  0.2548883797182029  0.1415538930397560   T   T   T
  0.1716176690260198  0.2551821781774777  0.6393754428495271   T   T   T
  0.2539121762332712  0.6497320280404466  0.0307530069832254   T   T   T
  0.6561518297871558  0.7859854424855399  0.5255570032757859   T   T   T
  0.4822096383536163  0.1503769254751575  0.3027693894033234   T   T   T
  0.0624304989886681  0.2076514532782809  0.7890064138727340   T   T   T
 
  0.00000000E+00  0.00000000E+00  0.00000000E+00
  0.00000000E+00  0.00000000E+00  0.00000000E+00
  0.00000000E+00  0.00000000E+00  0.00000000E+00
  0.00000000E+00  0.00000000E+00  0.00000000E+00
  0.00000000E+00  0.00000000E+00  0.00000000E+00
  0.00000000E+00  0.00000000E+00  0.00000000E+00
  0.00000000E+00  0.00000000E+00  0.00000000E+00
  0.00000000E+00  0.00000000E+00  0.00000000E+00
  0.00000000E+00  0.00000000E+00  0.00000000E+00
  0.00000000E+00  0.00000000E+00  0.00000000E+00
  0.00000000E+00  0.00000000E+00  0.00000000E+00
  0.00000000E+00  0.00000000E+00  0.00000000E+00
  0.00000000E+00  0.00000000E+00  0.00000000E+00
  0.00000000E+00  0.00000000E+00  0.00000000E+00
  0.00000000E+00  0.00000000E+00  0.00000000E+00
  0.00000000E+00  0.00000000E+00  0.00000000E+00
  0.00000000E+00  0.00000000E+00  0.00000000E+00
  0.00000000E+00  0.00000000E+00  0.00000000E+00
  0.00000000E+00  0.00000000E+00  0.00000000E+00
  0.00000000E+00  0.00000000E+00  0.00000000E+00
  0.00000000E+00  0.00000000E+00  0.00000000E+00
  0.00000000E+00  0.00000000E+00  0.00000000E+00
  0.00000000E+00  0.00000000E+00  0.00000000E+00
  0.00000000E+00  0.00000000E+00  0.00000000E+00
  0.00000000E+00  0.00000000E+00  0.00000000E+00
  0.00000000E+00  0.00000000E+00  0.00000000E+00
  0.00000000E+00  0.00000000E+00  0.00000000E+00
  0.00000000E+00  0.00000000E+00  0.00000000E+00
  0.00000000E+00  0.00000000E+00  0.00000000E+00
  0.00000000E+00  0.00000000E+00  0.00000000E+00
  0.00000000E+00  0.00000000E+00  0.00000000E+00
  0.00000000E+00  0.00000000E+00  0.00000000E+00
  0.00000000E+00  0.00000000E+00  0.00000000E+00
  0.00000000E+00  0.00000000E+00  0.00000000E+00
  0.00000000E+00  0.00000000E+00  0.00000000E+00
  0.00000000E+00  0.00000000E+00  0.00000000E+00
  0.00000000E+00  0.00000000E+00  0.00000000E+00
  0.00000000E+00  0.00000000E+00  0.00000000E+00
  0.00000000E+00  0.00000000E+00  0.00000000E+00
  0.00000000E+00  0.00000000E+00  0.00000000E+00
  0.00000000E+00  0.00000000E+00  0.00000000E+00
  0.00000000E+00  0.00000000E+00  0.00000000E+00
  0.00000000E+00  0.00000000E+00  0.00000000E+00
  0.00000000E+00  0.00000000E+00  0.00000000E+00
  0.00000000E+00  0.00000000E+00  0.00000000E+00
  0.00000000E+00  0.00000000E+00  0.00000000E+00
  0.00000000E+00  0.00000000E+00  0.00000000E+00
  0.00000000E+00  0.00000000E+00  0.00000000E+00
  0.00000000E+00  0.00000000E+00  0.00000000E+00
  0.00000000E+00  0.00000000E+00  0.00000000E+00
  0.00000000E+00  0.00000000E+00  0.00000000E+00
  0.00000000E+00  0.00000000E+00  0.00000000E+00
  0.00000000E+00  0.00000000E+00  0.00000000E+00
  0.00000000E+00  0.00000000E+00  0.00000000E+00
  0.00000000E+00  0.00000000E+00  0.00000000E+00
  0.00000000E+00  0.00000000E+00  0.00000000E+00
