Primitive Cell                          
   1.00000000000000     
     5.0298815757711477    0.0460490516315602   -0.0026510218332259
    -1.9431540592747159    4.8316996402683623    0.0091127483243571
    -0.3231296949692747   -1.2825679095549167   12.5018710912496154
   Li   C    O    F 
    10     4    12     2
Selective dynamics
Direct
  0.9628904282648563  0.2236040350756667  0.8317687294233522   T   T   T
  0.6153590819814312  0.9227348775659650  0.3082299591601938   T   T   T
  0.1328496203587548  0.4452963897854900  0.3044325934660250   T   T   T
  0.3130802023563177  0.8102047742220932  0.5426827823542837   T   T   T
  0.6315437491483422  0.8557785108789346  0.0492274248151503   T   T   T
  0.6569814669810157  0.4918847233264927  0.4353528863761440   T   T   T
  0.0676337104995426  0.3267888572075535  0.0579993072201717   T   T   T
  0.3180075549188146  0.3473609572032927  0.6566240772310863   T   T   T
  0.6036559194143152  0.4039038244322555  0.1691308606320305   T   T   T
  0.3119049125046800  0.8723433431383185  0.7689825178326970   T   T   T
  0.1507407103395551  0.8515295262624818  0.1533264366449885   T   T   T
  0.7932181617005156  0.8617400586124759  0.6448788077367240   T   T   T
  0.1563772859550667  0.9667249372891575  0.4011159767484216   T   T   T
  0.4910096112118154  0.2603098798025485  0.9544284459469310   T   T   T
  0.0003356733087969  0.9827415483384385  0.1181804861210338   T   T   T
  0.6922820599789858  0.9897415963023946  0.7151852829411709   T   T   T
  0.0030593374464445  0.0903650439476706  0.3625706076253223   T   T   T
  0.4665989762724578  0.4550155446155699  0.0222178817639858   T   T   T
  0.4254385230732822  0.0983110220438661  0.4341952109268803   T   T   T
  0.7214472186041547  0.1993111369678573  0.9613611641843605   T   T   T
  0.4282548714429240  0.9774592415901751  0.1713994195983446   T   T   T
  0.0697906775772310  0.9386105597770253  0.6372977718163710   T   T   T
  0.0303985136024849  0.5905136347978868  0.1702323702116431   T   T   T
  0.6122914683619243  0.6545995462959411  0.5808409240656758   T   T   T
  0.0541298185371488  0.7001717636726141  0.4121168626182339   T   T   T
  0.2864309508691179  0.1245122031482353  0.8849213560440248   T   T   T
  0.5164624581071138  0.5464986910441070  0.2992352122056872   T   T   T
  0.1726261354771097  0.5067549161205562  0.7577728984624841   T   T   T
 
  0.00000000E+00  0.00000000E+00  0.00000000E+00
  0.00000000E+00  0.00000000E+00  0.00000000E+00
  0.00000000E+00  0.00000000E+00  0.00000000E+00
  0.00000000E+00  0.00000000E+00  0.00000000E+00
  0.00000000E+00  0.00000000E+00  0.00000000E+00
  0.00000000E+00  0.00000000E+00  0.00000000E+00
  0.00000000E+00  0.00000000E+00  0.00000000E+00
  0.00000000E+00  0.00000000E+00  0.00000000E+00
  0.00000000E+00  0.00000000E+00  0.00000000E+00
  0.00000000E+00  0.00000000E+00  0.00000000E+00
  0.00000000E+00  0.00000000E+00  0.00000000E+00
  0.00000000E+00  0.00000000E+00  0.00000000E+00
  0.00000000E+00  0.00000000E+00  0.00000000E+00
  0.00000000E+00  0.00000000E+00  0.00000000E+00
  0.00000000E+00  0.00000000E+00  0.00000000E+00
  0.00000000E+00  0.00000000E+00  0.00000000E+00
  0.00000000E+00  0.00000000E+00  0.00000000E+00
  0.00000000E+00  0.00000000E+00  0.00000000E+00
  0.00000000E+00  0.00000000E+00  0.00000000E+00
  0.00000000E+00  0.00000000E+00  0.00000000E+00
  0.00000000E+00  0.00000000E+00  0.00000000E+00
  0.00000000E+00  0.00000000E+00  0.00000000E+00
  0.00000000E+00  0.00000000E+00  0.00000000E+00
  0.00000000E+00  0.00000000E+00  0.00000000E+00
  0.00000000E+00  0.00000000E+00  0.00000000E+00
  0.00000000E+00  0.00000000E+00  0.00000000E+00
  0.00000000E+00  0.00000000E+00  0.00000000E+00
  0.00000000E+00  0.00000000E+00  0.00000000E+00
