Primitive Cell                          
   1.00000000000000     
     4.6178998189459568    0.1440667313482391   -0.0138616845760294
     0.2279711374429821    7.7325158116214068   -0.3151174440407971
    -0.1001615440065548   -0.8884489894518385   16.7114267460298187
   Li   C    O    F 
    20     8    24     4
Selective dynamics
Direct
  0.2685886979035743  0.0636518495623406  0.9250440064875036   T   T   T
  0.2685765004282885  0.0637268534341686  0.4250508668421631   T   T   T
  0.2423225349308993  0.9388706521792471  0.6150593763902350   T   T   T
  0.2423343492536958  0.9388436932324069  0.1150624879157007   T   T   T
  0.6298782568144645  0.8353279309494965  0.7783900868852811   T   T   T
  0.6298960888162384  0.8353719447894932  0.2783945668687053   T   T   T
  0.2759849930307823  0.2083963734588608  0.7593637668869277   T   T   T
  0.2759871229062512  0.2084219787573574  0.2593646125848750   T   T   T
  0.8114773128620385  0.2192426414346045  0.0224800525228801   T   T   T
  0.8114721354357712  0.2192964594993470  0.5224789549647326   T   T   T
  0.2132111850449618  0.6334407112413416  0.0401959790576782   T   T   T
  0.2132095549614021  0.6334742605839452  0.5401958076927613   T   T   T
  0.7301158605751894  0.3881089361580408  0.6976350676104985   T   T   T
  0.7301208429816057  0.3881246280616395  0.1976342955664592   T   T   T
  0.1840606083274920  0.6292588616853294  0.7117294698435614   T   T   T
  0.1840707335874896  0.6292650122529011  0.2117423402922753   T   T   T
  0.7594547311761417  0.8150899924914299  0.4716811080309853   T   T   T
  0.7594583192993341  0.8150190405914088  0.9716749971665095   T   T   T
  0.2498976610332519  0.3922568830561772  0.4254865632562357   T   T   T
  0.2499097825720540  0.3921888821470034  0.9254924095158330   T   T   T
  0.2742767043193055  0.3360911108506528  0.6067817323500293   T   T   T
  0.2742764078400697  0.3360832872265149  0.1067837431277638   T   T   T
  0.7120995342440395  0.7122145439936105  0.6262979272381344   T   T   T
  0.7121052883681500  0.7121985637131871  0.1263054877065386   T   T   T
  0.2105993701351707  0.7383841896965464  0.8757100022238191   T   T   T
  0.2105994792918935  0.7384558265738406  0.3757124312339215   T   T   T
  0.7500698001601052  0.2587620285951857  0.8597244327517970   T   T   T
  0.7500438188619114  0.2588312238979498  0.3597239086741695   T   T   T
  0.5548793510347565  0.7548392570207270  0.0656537494894422   T   T   T
  0.5548585039529286  0.7548751208698263  0.5656476005758719   T   T   T
  0.6205487363647038  0.3246833159402911  0.8005626163761619   T   T   T
  0.6205263380228629  0.3247427423443767  0.3005667266405112   T   T   T
  0.5336127804165045  0.2668656765259456  0.6048818443804365   T   T   T
  0.5336427251682139  0.2668706249783099  0.1048858770172103   T   T   T
  0.4448816309445505  0.8259346566446553  0.8871810409945766   T   T   T
  0.4448612746333609  0.8260047968132511  0.3871865966065897   T   T   T
  0.6002566829089631  0.6388337204373187  0.6846090931945739   T   T   T
  0.6002733015027459  0.6388546397083630  0.1846195198171472   T   T   T
  0.6003047902944942  0.2296847157462167  0.9226659299942099   T   T   T
  0.6002918387313372  0.2297572373590242  0.4226705842112182   T   T   T
  0.1426641666495954  0.3820987495314156  0.5416723016141916   T   T   T
  0.1426485850416483  0.3820621207091079  0.0416691013164083   T   T   T
  0.0609367811247949  0.7481533492939434  0.8110528394002898   T   T   T
  0.0609470545210300  0.7482281397990675  0.3110592705743969   T   T   T
  0.1256536180671404  0.6441734445762108  0.9310134053811012   T   T   T
  0.1256574963544779  0.6442426937774357  0.4310112777265260   T   T   T
  0.0295999696726241  0.2226953957876106  0.8593514580602672   T   T   T
  0.0295866456467806  0.2227586273462308  0.3593513058999704   T   T   T
  0.1396604980526135  0.3646524714966048  0.6758163329321292   T   T   T
  0.1396592733002748  0.3646600454828075  0.1758212655721465   T   T   T
  0.9846164632268639  0.7422402346401995  0.6283851742951967   T   T   T
  0.9846174635419729  0.7422152621784122  0.1283870877773552   T   T   T
  0.0354810372731791  0.0050454656008014  0.5119052253462186   T   T   T
  0.0355000317042879  0.0049908573176012  0.0119050454307583   T   T   T
  0.4061067594734453  0.9923508183619916  0.7170143079439555   T   T   T
  0.4061270963372081  0.9923800445634328  0.2170122171263316   T   T   T
 
  0.00000000E+00  0.00000000E+00  0.00000000E+00
  0.00000000E+00  0.00000000E+00  0.00000000E+00
  0.00000000E+00  0.00000000E+00  0.00000000E+00
  0.00000000E+00  0.00000000E+00  0.00000000E+00
  0.00000000E+00  0.00000000E+00  0.00000000E+00
  0.00000000E+00  0.00000000E+00  0.00000000E+00
  0.00000000E+00  0.00000000E+00  0.00000000E+00
  0.00000000E+00  0.00000000E+00  0.00000000E+00
  0.00000000E+00  0.00000000E+00  0.00000000E+00
  0.00000000E+00  0.00000000E+00  0.00000000E+00
  0.00000000E+00  0.00000000E+00  0.00000000E+00
  0.00000000E+00  0.00000000E+00  0.00000000E+00
  0.00000000E+00  0.00000000E+00  0.00000000E+00
  0.00000000E+00  0.00000000E+00  0.00000000E+00
  0.00000000E+00  0.00000000E+00  0.00000000E+00
  0.00000000E+00  0.00000000E+00  0.00000000E+00
  0.00000000E+00  0.00000000E+00  0.00000000E+00
  0.00000000E+00  0.00000000E+00  0.00000000E+00
  0.00000000E+00  0.00000000E+00  0.00000000E+00
  0.00000000E+00  0.00000000E+00  0.00000000E+00
  0.00000000E+00  0.00000000E+00  0.00000000E+00
  0.00000000E+00  0.00000000E+00  0.00000000E+00
  0.00000000E+00  0.00000000E+00  0.00000000E+00
  0.00000000E+00  0.00000000E+00  0.00000000E+00
  0.00000000E+00  0.00000000E+00  0.00000000E+00
  0.00000000E+00  0.00000000E+00  0.00000000E+00
  0.00000000E+00  0.00000000E+00  0.00000000E+00
  0.00000000E+00  0.00000000E+00  0.00000000E+00
  0.00000000E+00  0.00000000E+00  0.00000000E+00
  0.00000000E+00  0.00000000E+00  0.00000000E+00
  0.00000000E+00  0.00000000E+00  0.00000000E+00
  0.00000000E+00  0.00000000E+00  0.00000000E+00
  0.00000000E+00  0.00000000E+00  0.00000000E+00
  0.00000000E+00  0.00000000E+00  0.00000000E+00
  0.00000000E+00  0.00000000E+00  0.00000000E+00
  0.00000000E+00  0.00000000E+00  0.00000000E+00
  0.00000000E+00  0.00000000E+00  0.00000000E+00
  0.00000000E+00  0.00000000E+00  0.00000000E+00
  0.00000000E+00  0.00000000E+00  0.00000000E+00
  0.00000000E+00  0.00000000E+00  0.00000000E+00
  0.00000000E+00  0.00000000E+00  0.00000000E+00
  0.00000000E+00  0.00000000E+00  0.00000000E+00
  0.00000000E+00  0.00000000E+00  0.00000000E+00
  0.00000000E+00  0.00000000E+00  0.00000000E+00
  0.00000000E+00  0.00000000E+00  0.00000000E+00
  0.00000000E+00  0.00000000E+00  0.00000000E+00
  0.00000000E+00  0.00000000E+00  0.00000000E+00
  0.00000000E+00  0.00000000E+00  0.00000000E+00
  0.00000000E+00  0.00000000E+00  0.00000000E+00
  0.00000000E+00  0.00000000E+00  0.00000000E+00
  0.00000000E+00  0.00000000E+00  0.00000000E+00
  0.00000000E+00  0.00000000E+00  0.00000000E+00
  0.00000000E+00  0.00000000E+00  0.00000000E+00
  0.00000000E+00  0.00000000E+00  0.00000000E+00
  0.00000000E+00  0.00000000E+00  0.00000000E+00
  0.00000000E+00  0.00000000E+00  0.00000000E+00
