Primitive Cell                          
   1.00000000000000     
     4.9382708864252045   -0.1469235448812971   -0.0855166744951213
     1.5580433713467599    7.4700691058532449   -2.1267904062253864
     1.3379445723112895   -0.5963676821052891   16.0671754836260448
   Li   C    O    F 
    20     8    24     4
Selective dynamics
Direct
  0.4452736910194375  0.2931109473876461  0.0417368727851795   T   T   T
  0.0035861846517022  0.6788599983384387  0.5208284279853999   T   T   T
  0.3296604302695130  0.1125354856502270  0.6588376953725970   T   T   T
  0.9014672367478340  0.6055079958560583  0.1680779240701398   T   T   T
  0.9528658605066838  0.2028109944158842  0.1056201578222158   T   T   T
  0.4458256049738765  0.7238158372221193  0.6226168768713691   T   T   T
  0.8510148946798708  0.9830516082038656  0.7091303644908109   T   T   T
  0.3920312803969210  0.4349756012590689  0.2077907521661047   T   T   T
  0.3991832202669272  0.7418153678488650  0.9189228758683257   T   T   T
  0.8821713738171155  0.3007223186976518  0.4410068086933592   T   T   T
  0.9606232715620919  0.5366637191551220  0.8472695792375688   T   T   T
  0.5397718695522826  0.9087970221392254  0.3003155792106043   T   T   T
  0.8305732235173977  0.9665034252793632  0.8925927300238996   T   T   T
  0.3652248848536104  0.4606932400806798  0.3901078365944812   T   T   T
  0.4860759491998792  0.3036081603183192  0.8699041030240835   T   T   T
  0.0338414817309243  0.7611027009154157  0.3591902538366796   T   T   T
  0.5061021851759193  0.4741470509200525  0.7294193810172018   T   T   T
  0.0439522312984195  0.9417732835806945  0.1956633964708985   T   T   T
  0.3077732778809050  0.3300518844265454  0.5552122133628004   T   T   T
  0.8614107303082363  0.7880065013699351  0.0365532440042955   T   T   T
  0.9653814222232171  0.2887858344176024  0.9469308554473912   T   T   T
  0.5124557200989344  0.7769091909631456  0.4472066656358535   T   T   T
  0.3528987380718647  0.9595606813227135  0.7954469660377157   T   T   T
  0.8815780088315961  0.4235115958107585  0.2900018559370352   T   T   T
  0.8249306864284307  0.1950420339676526  0.5896556379503579   T   T   T
  0.4055505155636752  0.6531338434510090  0.0853036633069024   T   T   T
  0.9778765607545026  0.6067888633138594  0.6775229694079457   T   T   T
  0.4917126793268167  0.0792011450198089  0.1644739948054905   T   T   T
  0.8430511899636812  0.7135664949810234  0.6382984842546549   T   T   T
  0.3410566743675929  0.1887459366049598  0.1309797865998874   T   T   T
  0.6829834504524825  0.1715950786039144  0.6559499878812716   T   T   T
  0.2890180413062282  0.5565990702538102  0.1254646715774896   T   T   T
  0.2505375820181470  0.9582977253957097  0.7216668391413350   T   T   T
  0.7831024844375420  0.4280329028252510  0.2174252553737546   T   T   T
  0.8280302183108574  0.2112016487717625  0.9938958811186609   T   T   T
  0.3797776640714190  0.7153374001462254  0.5012434376730965   T   T   T
  0.8492248939630969  0.5519408376463062  0.7330194949273974   T   T   T
  0.3764096658856175  0.0219617253829298  0.2226576677672725   T   T   T
  0.6944446376011371  0.2482293275185370  0.5318592366556416   T   T   T
  0.2549985526433076  0.7530685569399935  0.0472685337109340   T   T   T
  0.2296328408873407  0.9024897060003028  0.8510080617278817   T   T   T
  0.7490188512996383  0.3659522915099629  0.3447358195023682   T   T   T
  0.8493742369567627  0.3429038673787161  0.8871616288144040   T   T   T
  0.3917287471338469  0.8094943043524339  0.3822540097875020   T   T   T
  0.2467080503589187  0.5553952760671166  0.6570560573326176   T   T   T
  0.7566666147476937  0.0322463847349539  0.1393700004903806   T   T   T
  0.0910242404471546  0.1687137083871590  0.5836832430706664   T   T   T
  0.6669168679574682  0.6480863182437062  0.0853938512341728   T   T   T
  0.5794066342871886  0.0214429463388015  0.8091484335918508   T   T   T
  0.1108126355834713  0.4806400752461428  0.3059163282482444   T   T   T
  0.2138174197554434  0.3045188960453160  0.9598747836060468   T   T   T
  0.7628822601486505  0.7975605834063160  0.4559764261969903   T   T   T
  0.7734622873214931  0.7682299704604034  0.9258223806456698   T   T   T
  0.1555134791379089  0.4135346954769190  0.4722213581552737   T   T   T
  0.3477224008538542  0.5114531396668340  0.8396195081056348   T   T   T
  0.9052446741423452  0.8242972349506914  0.2655268114165708   T   T   T
 
  0.00000000E+00  0.00000000E+00  0.00000000E+00
  0.00000000E+00  0.00000000E+00  0.00000000E+00
  0.00000000E+00  0.00000000E+00  0.00000000E+00
  0.00000000E+00  0.00000000E+00  0.00000000E+00
  0.00000000E+00  0.00000000E+00  0.00000000E+00
  0.00000000E+00  0.00000000E+00  0.00000000E+00
  0.00000000E+00  0.00000000E+00  0.00000000E+00
  0.00000000E+00  0.00000000E+00  0.00000000E+00
  0.00000000E+00  0.00000000E+00  0.00000000E+00
  0.00000000E+00  0.00000000E+00  0.00000000E+00
  0.00000000E+00  0.00000000E+00  0.00000000E+00
  0.00000000E+00  0.00000000E+00  0.00000000E+00
  0.00000000E+00  0.00000000E+00  0.00000000E+00
  0.00000000E+00  0.00000000E+00  0.00000000E+00
  0.00000000E+00  0.00000000E+00  0.00000000E+00
  0.00000000E+00  0.00000000E+00  0.00000000E+00
  0.00000000E+00  0.00000000E+00  0.00000000E+00
  0.00000000E+00  0.00000000E+00  0.00000000E+00
  0.00000000E+00  0.00000000E+00  0.00000000E+00
  0.00000000E+00  0.00000000E+00  0.00000000E+00
  0.00000000E+00  0.00000000E+00  0.00000000E+00
  0.00000000E+00  0.00000000E+00  0.00000000E+00
  0.00000000E+00  0.00000000E+00  0.00000000E+00
  0.00000000E+00  0.00000000E+00  0.00000000E+00
  0.00000000E+00  0.00000000E+00  0.00000000E+00
  0.00000000E+00  0.00000000E+00  0.00000000E+00
  0.00000000E+00  0.00000000E+00  0.00000000E+00
  0.00000000E+00  0.00000000E+00  0.00000000E+00
  0.00000000E+00  0.00000000E+00  0.00000000E+00
  0.00000000E+00  0.00000000E+00  0.00000000E+00
  0.00000000E+00  0.00000000E+00  0.00000000E+00
  0.00000000E+00  0.00000000E+00  0.00000000E+00
  0.00000000E+00  0.00000000E+00  0.00000000E+00
  0.00000000E+00  0.00000000E+00  0.00000000E+00
  0.00000000E+00  0.00000000E+00  0.00000000E+00
  0.00000000E+00  0.00000000E+00  0.00000000E+00
  0.00000000E+00  0.00000000E+00  0.00000000E+00
  0.00000000E+00  0.00000000E+00  0.00000000E+00
  0.00000000E+00  0.00000000E+00  0.00000000E+00
  0.00000000E+00  0.00000000E+00  0.00000000E+00
  0.00000000E+00  0.00000000E+00  0.00000000E+00
  0.00000000E+00  0.00000000E+00  0.00000000E+00
  0.00000000E+00  0.00000000E+00  0.00000000E+00
  0.00000000E+00  0.00000000E+00  0.00000000E+00
  0.00000000E+00  0.00000000E+00  0.00000000E+00
  0.00000000E+00  0.00000000E+00  0.00000000E+00
  0.00000000E+00  0.00000000E+00  0.00000000E+00
  0.00000000E+00  0.00000000E+00  0.00000000E+00
  0.00000000E+00  0.00000000E+00  0.00000000E+00
  0.00000000E+00  0.00000000E+00  0.00000000E+00
  0.00000000E+00  0.00000000E+00  0.00000000E+00
  0.00000000E+00  0.00000000E+00  0.00000000E+00
  0.00000000E+00  0.00000000E+00  0.00000000E+00
  0.00000000E+00  0.00000000E+00  0.00000000E+00
  0.00000000E+00  0.00000000E+00  0.00000000E+00
  0.00000000E+00  0.00000000E+00  0.00000000E+00
