Primitive Cell                          
   1.00000000000000     
     4.9529383067301671    0.0276919994792471   -0.1963247134049270
     0.1295769097781636    8.0425014089474178   -0.2054337091095510
     0.0457484035488154    3.3161003016955828   14.4711771618601208
   Li   C    O    F 
    20     8    24     4
Selective dynamics
Direct
  0.2271933138340856  0.1589119675661834  0.8333647276587470   T   T   T
  0.7463197604665268  0.6173405399056691  0.9497973990124322   T   T   T
  0.4140789234718767  0.6622097200567936  0.3413194199761662   T   T   T
  0.9346067391904427  0.8204212276422638  0.3879381565950339   T   T   T
  0.3369558178882528  0.3351733170227362  0.6197012479360708   T   T   T
  0.9033741829328008  0.8148742062895167  0.7157936866452985   T   T   T
  0.5463008498783282  0.8293878863097177  0.1036896569899213   T   T   T
  0.1195365574443414  0.3153808790601360  0.1910192546141687   T   T   T
  0.7110812456440243  0.0866806086347083  0.2052310588872999   T   T   T
  0.5145192267188960  0.2044225086104916  0.0670798033877347   T   T   T
  0.4449309313517702  0.6255482810297508  0.7632927268015095   T   T   T
  0.8988244730692116  0.1846700385789575  0.6579118859864010   T   T   T
  0.0392390518900072  0.0496964189719904  0.0089578188783435   T   T   T
  0.1178422143676698  0.6753139149112499  0.1258477537101328   T   T   T
  0.7912227452718952  0.4858953943299653  0.4928623924746631   T   T   T
  0.1080173682729537  0.0915815866673597  0.5158026769558646   T   T   T
  0.7181975906931797  0.3112358218001319  0.8793428550709947   T   T   T
  0.2317049882291542  0.7970767907293208  0.9114535816009237   T   T   T
  0.3239454379352864  0.6981584631237254  0.5888229483927745   T   T   T
  0.4282720021667004  0.2983327194434366  0.3644215676563434   T   T   T
  0.9684495716049213  0.4691339171011251  0.7292787878104434   T   T   T
  0.4052782704183429  0.9816040723783459  0.6665478949165475   T   T   T
  0.2110441020723997  0.9562490336504723  0.2217870544344223   T   T   T
  0.6178721356403116  0.4789081809432361  0.1236918889342320   T   T   T
  0.2369200807851968  0.4300672841464035  0.9311281659257205   T   T   T
  0.7344327120502498  0.9593497270564839  0.8683389843293057   T   T   T
  0.4056198319579352  0.9329251128984879  0.4405457070077432   T   T   T
  0.9419526294109417  0.4764094556894420  0.3480572648207385   T   T   T
  0.5384958520990466  0.1187595448621508  0.6574177601197704   T   T   T
  0.0841730110208161  0.6116922883440949  0.6984123315011104   T   T   T
  0.7467053820091394  0.6194641875450486  0.0953852177993397   T   T   T
  0.3084452320200555  0.0993443819205524  0.1778711281141625   T   T   T
  0.1025367028114701  0.3277561424825990  0.7281998568546655   T   T   T
  0.5286232354305440  0.8338784575270921  0.6767666000586630   T   T   T
  0.3251107596939917  0.8125964407741577  0.2144992001950357   T   T   T
  0.7494283075003523  0.3335881975577450  0.1408436045774835   T   T   T
  0.3673964449330640  0.2817412034449234  0.9433163212578393   T   T   T
  0.8605557350202844  0.8174631810874331  0.8624153642878980   T   T   T
  0.5578418844457858  0.8377256312590760  0.4024539803983842   T   T   T
  0.0793236302065168  0.3752219236029504  0.3089976030508979   T   T   T
  0.9835925414255087  0.4336603609799852  0.9431178421294177   T   T   T
  0.4765252699063751  0.9715672985913386  0.8602971918484101   T   T   T
  0.1875023414227002  0.8712791716920165  0.4824815934329365   T   T   T
  0.6797961609440790  0.4665769780336646  0.3548177271769362   T   T   T
  0.8767277706946430  0.0865741556871527  0.8833675792701570   T   T   T
  0.3730655010507888  0.5674878882092500  0.9049397756131157   T   T   T
  0.0607676908082695  0.5882982161793606  0.3866027842264543   T   T   T
  0.4557912115759635  0.0895819980950847  0.4408676936897891   T   T   T
  0.7315167135251670  0.4653910755581379  0.7617553459006956   T   T   T
  0.1413748820608021  0.9898694743270866  0.6627883469883500   T   T   T
  0.0052280425939344  0.9623323127238876  0.2714517127971092   T   T   T
  0.3596148045803602  0.4839525001241824  0.1295361955317915   T   T   T
  0.2258327284582720  0.8449148256749055  0.0284943111485276   T   T   T
  0.7537602855564174  0.0205569181200715  0.0838028788836525   T   T   T
  0.0157272423323391  0.2991681294032773  0.5430789499223607   T   T   T
  0.5184054804755291  0.5174111871866884  0.5646906894719024   T   T   T
 
  0.00000000E+00  0.00000000E+00  0.00000000E+00
  0.00000000E+00  0.00000000E+00  0.00000000E+00
  0.00000000E+00  0.00000000E+00  0.00000000E+00
  0.00000000E+00  0.00000000E+00  0.00000000E+00
  0.00000000E+00  0.00000000E+00  0.00000000E+00
  0.00000000E+00  0.00000000E+00  0.00000000E+00
  0.00000000E+00  0.00000000E+00  0.00000000E+00
  0.00000000E+00  0.00000000E+00  0.00000000E+00
  0.00000000E+00  0.00000000E+00  0.00000000E+00
  0.00000000E+00  0.00000000E+00  0.00000000E+00
  0.00000000E+00  0.00000000E+00  0.00000000E+00
  0.00000000E+00  0.00000000E+00  0.00000000E+00
  0.00000000E+00  0.00000000E+00  0.00000000E+00
  0.00000000E+00  0.00000000E+00  0.00000000E+00
  0.00000000E+00  0.00000000E+00  0.00000000E+00
  0.00000000E+00  0.00000000E+00  0.00000000E+00
  0.00000000E+00  0.00000000E+00  0.00000000E+00
  0.00000000E+00  0.00000000E+00  0.00000000E+00
  0.00000000E+00  0.00000000E+00  0.00000000E+00
  0.00000000E+00  0.00000000E+00  0.00000000E+00
  0.00000000E+00  0.00000000E+00  0.00000000E+00
  0.00000000E+00  0.00000000E+00  0.00000000E+00
  0.00000000E+00  0.00000000E+00  0.00000000E+00
  0.00000000E+00  0.00000000E+00  0.00000000E+00
  0.00000000E+00  0.00000000E+00  0.00000000E+00
  0.00000000E+00  0.00000000E+00  0.00000000E+00
  0.00000000E+00  0.00000000E+00  0.00000000E+00
  0.00000000E+00  0.00000000E+00  0.00000000E+00
  0.00000000E+00  0.00000000E+00  0.00000000E+00
  0.00000000E+00  0.00000000E+00  0.00000000E+00
  0.00000000E+00  0.00000000E+00  0.00000000E+00
  0.00000000E+00  0.00000000E+00  0.00000000E+00
  0.00000000E+00  0.00000000E+00  0.00000000E+00
  0.00000000E+00  0.00000000E+00  0.00000000E+00
  0.00000000E+00  0.00000000E+00  0.00000000E+00
  0.00000000E+00  0.00000000E+00  0.00000000E+00
  0.00000000E+00  0.00000000E+00  0.00000000E+00
  0.00000000E+00  0.00000000E+00  0.00000000E+00
  0.00000000E+00  0.00000000E+00  0.00000000E+00
  0.00000000E+00  0.00000000E+00  0.00000000E+00
  0.00000000E+00  0.00000000E+00  0.00000000E+00
  0.00000000E+00  0.00000000E+00  0.00000000E+00
  0.00000000E+00  0.00000000E+00  0.00000000E+00
  0.00000000E+00  0.00000000E+00  0.00000000E+00
  0.00000000E+00  0.00000000E+00  0.00000000E+00
  0.00000000E+00  0.00000000E+00  0.00000000E+00
  0.00000000E+00  0.00000000E+00  0.00000000E+00
  0.00000000E+00  0.00000000E+00  0.00000000E+00
  0.00000000E+00  0.00000000E+00  0.00000000E+00
  0.00000000E+00  0.00000000E+00  0.00000000E+00
  0.00000000E+00  0.00000000E+00  0.00000000E+00
  0.00000000E+00  0.00000000E+00  0.00000000E+00
  0.00000000E+00  0.00000000E+00  0.00000000E+00
  0.00000000E+00  0.00000000E+00  0.00000000E+00
  0.00000000E+00  0.00000000E+00  0.00000000E+00
  0.00000000E+00  0.00000000E+00  0.00000000E+00
