Primitive Cell                          
   1.00000000000000     
     4.9927658902952370    0.0882984975411763    0.1949182580087671
    -0.7740752692341808    7.0737244406144715   -1.4733404608556226
    -1.3948015074077571   -4.7289927168244832   10.4074037572939364
   Li   C    O    F 
    10     4    12     2
Selective dynamics
Direct
  0.0324445342359354  0.4165902198159515  0.4424160224350331   T   T   T
  0.7936246522072423  0.7199508842113289  0.6308506640938205   T   T   T
  0.7896616407350550  0.4254901738964847  0.7261395280133414   T   T   T
  0.9297850955551468  0.6309890469308854  0.0587626454761221   T   T   T
  0.2134821937687335  0.0822713836017570  0.8885192677390137   T   T   T
  0.3184095953573376  0.4575090762944996  0.8841779308859543   T   T   T
  0.6598727076088196  0.8826554291153030  0.9202652524299140   T   T   T
  0.5091301433894841  0.4356593904854549  0.3410164644268292   T   T   T
  0.9971835890206648  0.6631340832704424  0.3216534352109477   T   T   T
  0.3757255843593441  0.9723750576444274  0.1358786256827358   T   T   T
  0.7348969159349679  0.1813814894075918  0.8321964814554619   T   T   T
  0.3101898105269498  0.5378690721067088  0.6614299239786163   T   T   T
  0.9176523524008289  0.0895396633155272  0.2028306709212018   T   T   T
  0.4648372687226257  0.6245420349590560  0.1844718748515817   T   T   T
  0.4809355743202772  0.1927570636946641  0.8269547730054256   T   T   T
  0.1662237486394389  0.1881160536778026  0.2723740034761377   T   T   T
  0.0436161868698406  0.5128963829005073  0.6492170534049748   T   T   T
  0.7187046215821411  0.6045931257146293  0.1779767633260434   T   T   T
  0.8251944183591036  0.0091240362136844  0.8201774703476872   T   T   T
  0.4591299044495187  0.5446867491043221  0.7636420875506502   T   T   T
  0.7174775533633664  0.1793811473634221  0.2658650353299592   T   T   T
  0.3255817576371385  0.6562232388528670  0.0966066983353855   T   T   T
  0.3474312172039049  0.6101746423281469  0.2749920996836650   T   T   T
  0.8733410158536543  0.9008854798486965  0.0739444162099616   T   T   T
  0.9115430253675569  0.3456378718917605  0.8502372793548290   T   T   T
  0.4220937461369729  0.5534838542933969  0.5705438904994082   T   T   T
  0.3612328982481969  0.9877281658323369  0.9819788712220543   T   T   T
  0.8764289681317337  0.6559467089759465  0.4628861821486012   T   T   T
 
  0.00000000E+00  0.00000000E+00  0.00000000E+00
  0.00000000E+00  0.00000000E+00  0.00000000E+00
  0.00000000E+00  0.00000000E+00  0.00000000E+00
  0.00000000E+00  0.00000000E+00  0.00000000E+00
  0.00000000E+00  0.00000000E+00  0.00000000E+00
  0.00000000E+00  0.00000000E+00  0.00000000E+00
  0.00000000E+00  0.00000000E+00  0.00000000E+00
  0.00000000E+00  0.00000000E+00  0.00000000E+00
  0.00000000E+00  0.00000000E+00  0.00000000E+00
  0.00000000E+00  0.00000000E+00  0.00000000E+00
  0.00000000E+00  0.00000000E+00  0.00000000E+00
  0.00000000E+00  0.00000000E+00  0.00000000E+00
  0.00000000E+00  0.00000000E+00  0.00000000E+00
  0.00000000E+00  0.00000000E+00  0.00000000E+00
  0.00000000E+00  0.00000000E+00  0.00000000E+00
  0.00000000E+00  0.00000000E+00  0.00000000E+00
  0.00000000E+00  0.00000000E+00  0.00000000E+00
  0.00000000E+00  0.00000000E+00  0.00000000E+00
  0.00000000E+00  0.00000000E+00  0.00000000E+00
  0.00000000E+00  0.00000000E+00  0.00000000E+00
  0.00000000E+00  0.00000000E+00  0.00000000E+00
  0.00000000E+00  0.00000000E+00  0.00000000E+00
  0.00000000E+00  0.00000000E+00  0.00000000E+00
  0.00000000E+00  0.00000000E+00  0.00000000E+00
  0.00000000E+00  0.00000000E+00  0.00000000E+00
  0.00000000E+00  0.00000000E+00  0.00000000E+00
  0.00000000E+00  0.00000000E+00  0.00000000E+00
  0.00000000E+00  0.00000000E+00  0.00000000E+00
