Primitive Cell                          
   1.00000000000000     
     4.8458993354759494    0.0819098805970490    0.0348543710227132
     1.0616705264810231    4.8108790831559940   -0.0339512073035628
     0.9558124242144326   -0.0540921917253855    7.4347879076463386
   Li   C    O    F 
     5     2     6     1
Selective dynamics
Direct
  0.8867398728317326  0.1969262317739933  0.4785856287890269   T   T   T
  0.1279677637030261  0.5119613339956857  0.9561146499330917   T   T   T
  0.4263790480171892  0.8829252236309486  0.8473616437617153   T   T   T
  0.4042249718170297  0.4027922025214039  0.2396229507191592   T   T   T
  0.4613236721279534  0.7973770273355285  0.4983780012542454   T   T   T
  0.9041238082151182  0.7741451451808743  0.7234830631141520   T   T   T
  0.2627783032150361  0.9868281981025788  0.1670606256707572   T   T   T
  0.7952475642838408  0.6204974016912814  0.8414201948793050   T   T   T
  0.3111194645122808  0.1605267171907272  0.0398687491110010   T   T   T
  0.2330244994126573  0.7440013270364645  0.1263185572321603   T   T   T
  0.2561382176105198  0.0657434491516611  0.3334755928647937   T   T   T
  0.1769340168280209  0.7630474822475861  0.7063413183348146   T   T   T
  0.7347472820116110  0.9416435781075236  0.6275595020572666   T   T   T
  0.6507535363600994  0.4717320208290303  0.3810818731060763   T   T   T
 
  0.00000000E+00  0.00000000E+00  0.00000000E+00
  0.00000000E+00  0.00000000E+00  0.00000000E+00
  0.00000000E+00  0.00000000E+00  0.00000000E+00
  0.00000000E+00  0.00000000E+00  0.00000000E+00
  0.00000000E+00  0.00000000E+00  0.00000000E+00
  0.00000000E+00  0.00000000E+00  0.00000000E+00
  0.00000000E+00  0.00000000E+00  0.00000000E+00
  0.00000000E+00  0.00000000E+00  0.00000000E+00
  0.00000000E+00  0.00000000E+00  0.00000000E+00
  0.00000000E+00  0.00000000E+00  0.00000000E+00
  0.00000000E+00  0.00000000E+00  0.00000000E+00
  0.00000000E+00  0.00000000E+00  0.00000000E+00
  0.00000000E+00  0.00000000E+00  0.00000000E+00
  0.00000000E+00  0.00000000E+00  0.00000000E+00
