Primitive Cell                          
   1.00000000000000     
     9.6593989545006114   -0.0415888918914317   -1.5671692475348247
    -2.3539202187427204   10.1948699122977189   -0.1336954682494688
    -1.5051012352170097   -0.4709936866804798    6.3178424331487300
   Li   C    O    F 
    20     8    24     4
Selective dynamics
Direct
  0.4755035096117268  0.0194634835477032  0.0688368645252595   T   T   T
  0.4347581979671773  0.3804506720663312  0.5912455079299690   T   T   T
  0.9619787531789896  0.9978946591659508  0.2982127111516206   T   T   T
  0.0991435321657193  0.5273346484830910  0.7663552327524101   T   T   T
  0.0245188954304965  0.5417016385933451  0.1242146834002611   T   T   T
  0.2660041106863957  0.1518544294634196  0.3340220114375256   T   T   T
  0.6062774972627594  0.5600479147013004  0.3958150864512717   T   T   T
  0.7665684409981282  0.1535484079538136  0.3929099780694187   T   T   T
  0.6928272754272271  0.8959173817295891  0.0532503482075910   T   T   T
  0.2678710499563763  0.1072706153301226  0.8041439812081421   T   T   T
  0.5064875260711403  0.6128218946006072  0.9955107682332667   T   T   T
  0.7838851047193671  0.3584075634431088  0.6774339071678170   T   T   T
  0.7998545990181469  0.1314533237460225  0.9319109044460419   T   T   T
  0.8892460513369045  0.6865211363472383  0.8257046197807369   T   T   T
  0.0200813276537133  0.9820312469581367  0.9294366533983975   T   T   T
  0.3553512518174458  0.8044525020202471  0.6474134337036688   T   T   T
  0.1300686758355170  0.8195624549100415  0.2060891890426575   T   T   T
  0.2478647652266091  0.3932840086759484  0.1186524867927830   T   T   T
  0.6594485859345056  0.8236374521536618  0.4187935541263386   T   T   T
  0.7556659921833955  0.4034105064413609  0.1509043305132494   T   T   T
  0.5758081984549364  0.6744063366796027  0.7230380232484279   T   T   T
  0.5403514808168381  0.2066529561912560  0.7855412062407723   T   T   T
  0.1754468514902285  0.8141011698374641  0.7981228142560681   T   T   T
  0.0272858513101966  0.2274856320451448  0.7637799193287051   T   T   T
  0.8310923256046081  0.6947222915314626  0.2295134918379560   T   T   T
  0.0179013771645984  0.2880587081891761  0.2782647039216855   T   T   T
  0.3376238764652939  0.6743391710574542  0.2302551514360403   T   T   T
  0.5104237755636518  0.2809310064555817  0.2625134537235141   T   T   T
  0.6860165428780718  0.6998309218625565  0.6546901642321856   T   T   T
  0.5840469493306202  0.1081988959104336  0.8786326262275850   T   T   T
  0.1778772894972320  0.7054197424976749  0.7039052918009929   T   T   T
  0.0737901838884198  0.1202450802982042  0.7720437666104232   T   T   T
  0.5483257923983089  0.7664130805061404  0.8297770820369124   T   T   T
  0.6375927182014962  0.3211790113261728  0.8174944150809296   T   T   T
  0.2836235750797300  0.9207832499925246  0.8208129860076951   T   T   T
  0.1201261851109408  0.3420515116862788  0.7971500404152536   T   T   T
  0.4901079034722500  0.5564868407884518  0.6931031494524973   T   T   T
  0.3964729769144881  0.1976665492471525  0.6590730850694655   T   T   T
  0.0699459911039924  0.8208205712044006  0.8701982404567232   T   T   T
  0.8820723036495082  0.2161953820891824  0.7225108944528955   T   T   T
  0.8212007373112655  0.8068154786978781  0.3062955397994642   T   T   T
  0.9668704563273209  0.3931360072394341  0.2524835673858092   T   T   T
  0.3186513745767243  0.7700649935959305  0.3369471973507743   T   T   T
  0.4622635691273089  0.3836017608240638  0.2960839508335411   T   T   T
  0.7266020409156084  0.5859420585993149  0.2084990874197956   T   T   T
  0.9275364075027070  0.1769600682846857  0.2851676695200851   T   T   T
  0.2242222001727043  0.5737221610345316  0.1170275237692948   T   T   T
  0.4119118653510085  0.1695296433246796  0.1647165472162371   T   T   T
  0.9405004931848353  0.6898973657852778  0.1662481863227399   T   T   T
  0.1533001215462519  0.2902585842662901  0.2891749729068351   T   T   T
  0.4722915042023814  0.6777879702540304  0.2333059631763774   T   T   T
  0.6568009922551354  0.2936066145473859  0.3339053979693674   T   T   T
  0.1354609094947605  0.9906351772289952  0.2646286954071471   T   T   T
  0.9132863324939748  0.5205057091463701  0.7912986955154651   T   T   T
  0.6453391368441075  0.9780403488773715  0.2761633930796137   T   T   T
  0.8426583799868723  0.9702505575565965  0.9665915179379212   T   T   T
 
  0.00000000E+00  0.00000000E+00  0.00000000E+00
  0.00000000E+00  0.00000000E+00  0.00000000E+00
  0.00000000E+00  0.00000000E+00  0.00000000E+00
  0.00000000E+00  0.00000000E+00  0.00000000E+00
  0.00000000E+00  0.00000000E+00  0.00000000E+00
  0.00000000E+00  0.00000000E+00  0.00000000E+00
  0.00000000E+00  0.00000000E+00  0.00000000E+00
  0.00000000E+00  0.00000000E+00  0.00000000E+00
  0.00000000E+00  0.00000000E+00  0.00000000E+00
  0.00000000E+00  0.00000000E+00  0.00000000E+00
  0.00000000E+00  0.00000000E+00  0.00000000E+00
  0.00000000E+00  0.00000000E+00  0.00000000E+00
  0.00000000E+00  0.00000000E+00  0.00000000E+00
  0.00000000E+00  0.00000000E+00  0.00000000E+00
  0.00000000E+00  0.00000000E+00  0.00000000E+00
  0.00000000E+00  0.00000000E+00  0.00000000E+00
  0.00000000E+00  0.00000000E+00  0.00000000E+00
  0.00000000E+00  0.00000000E+00  0.00000000E+00
  0.00000000E+00  0.00000000E+00  0.00000000E+00
  0.00000000E+00  0.00000000E+00  0.00000000E+00
  0.00000000E+00  0.00000000E+00  0.00000000E+00
  0.00000000E+00  0.00000000E+00  0.00000000E+00
  0.00000000E+00  0.00000000E+00  0.00000000E+00
  0.00000000E+00  0.00000000E+00  0.00000000E+00
  0.00000000E+00  0.00000000E+00  0.00000000E+00
  0.00000000E+00  0.00000000E+00  0.00000000E+00
  0.00000000E+00  0.00000000E+00  0.00000000E+00
  0.00000000E+00  0.00000000E+00  0.00000000E+00
  0.00000000E+00  0.00000000E+00  0.00000000E+00
  0.00000000E+00  0.00000000E+00  0.00000000E+00
  0.00000000E+00  0.00000000E+00  0.00000000E+00
  0.00000000E+00  0.00000000E+00  0.00000000E+00
  0.00000000E+00  0.00000000E+00  0.00000000E+00
  0.00000000E+00  0.00000000E+00  0.00000000E+00
  0.00000000E+00  0.00000000E+00  0.00000000E+00
  0.00000000E+00  0.00000000E+00  0.00000000E+00
  0.00000000E+00  0.00000000E+00  0.00000000E+00
  0.00000000E+00  0.00000000E+00  0.00000000E+00
  0.00000000E+00  0.00000000E+00  0.00000000E+00
  0.00000000E+00  0.00000000E+00  0.00000000E+00
  0.00000000E+00  0.00000000E+00  0.00000000E+00
  0.00000000E+00  0.00000000E+00  0.00000000E+00
  0.00000000E+00  0.00000000E+00  0.00000000E+00
  0.00000000E+00  0.00000000E+00  0.00000000E+00
  0.00000000E+00  0.00000000E+00  0.00000000E+00
  0.00000000E+00  0.00000000E+00  0.00000000E+00
  0.00000000E+00  0.00000000E+00  0.00000000E+00
  0.00000000E+00  0.00000000E+00  0.00000000E+00
  0.00000000E+00  0.00000000E+00  0.00000000E+00
  0.00000000E+00  0.00000000E+00  0.00000000E+00
  0.00000000E+00  0.00000000E+00  0.00000000E+00
  0.00000000E+00  0.00000000E+00  0.00000000E+00
  0.00000000E+00  0.00000000E+00  0.00000000E+00
  0.00000000E+00  0.00000000E+00  0.00000000E+00
  0.00000000E+00  0.00000000E+00  0.00000000E+00
  0.00000000E+00  0.00000000E+00  0.00000000E+00
