Primitive Cell                          
   1.00000000000000     
     5.5822451075116630    0.0000000000000000    0.0000000000000000
     0.0000000000000000    7.3244564626929289    0.0027519140160713
     0.0000000000000000    0.0645469126349475   18.8845057141401078
   Li   C    O    F 
    20     8    24     4
Selective dynamics
Direct
  0.2499468454316727  0.1477129655985649  0.6394717597163719   T   T   T
  0.7500531545683273  0.1477129655985649  0.6394717597163719   T   T   T
  0.2499469560691168  0.6447785154844183  0.9606538775402242   T   T   T
  0.2499674495965891  0.6467717382611298  0.8251660321450913   T   T   T
  0.7500530439308832  0.6447785154844183  0.9606538775402242   T   T   T
  0.7500325504034109  0.6467717382611298  0.8251660321450913   T   T   T
  0.0000000000000000  0.9809957274165413  0.7538035395720684   T   T   T
  0.0000000000000000  0.3084977407314042  0.5207702248569319   T   T   T
  0.5000000000000000  0.3140278494261466  0.7540022790219822   T   T   T
  0.5000000000000000  0.9774464017016697  0.5235305972526021   T   T   T
  0.2496537356537445  0.6466458301988283  0.4558313115822017   T   T   T
  0.7503462643462555  0.6466458301988283  0.4558313115822017   T   T   T
  0.2503310707331892  0.1519936944565714  0.2760103535717278   T   T   T
  0.2499500543265114  0.1426489971541756  0.1444013078935527   T   T   T
  0.7496689292668108  0.1519936944565714  0.2760103535717278   T   T   T
  0.7500499456734886  0.1426489971541756  0.1444013078935527   T   T   T
  0.5000000000000000  0.8111849344925020  0.0784726148829620   T   T   T
  0.5000000000000000  0.4807052117079920  0.3477791145797440   T   T   T
  0.0000000000000000  0.4746930928382511  0.0783467835660119   T   T   T
  0.0000000000000000  0.8291002038256039  0.3507235436921761   T   T   T
  0.5000000000000000  0.9324462245832734  0.7480508258452474   T   T   T
  0.5000000000000000  0.3592103973265424  0.5300630913677651   T   T   T
  0.0000000000000000  0.3628350831709781  0.7478891638612453   T   T   T
  0.0000000000000000  0.9279838119993542  0.5330288466047364   T   T   T
  0.0000000000000000  0.8557314228192823  0.0694788607062549   T   T   T
  0.0000000000000000  0.4413590197095587  0.3500344523796386   T   T   T
  0.5000000000000000  0.4302673575213021  0.0688411128221347   T   T   T
  0.5000000000000000  0.8681012607361538  0.3541712223116491   T   T   T
  0.2023804245439607  0.4301440677552435  0.7678491863232679   T   T   T
  0.2015102420837920  0.8590978134551506  0.5132219968625336   T   T   T
  0.7024061187900728  0.8646583547439235  0.7679347944820378   T   T   T
  0.7015542716453993  0.4269234523542025  0.5094632015605924   T   T   T
  0.7976195754560393  0.4301440677552435  0.7678491863232679   T   T   T
  0.7984897579162080  0.8590978134551506  0.5132219968625336   T   T   T
  0.2975938812099272  0.8646583547439235  0.7679347944820378   T   T   T
  0.2984457283546007  0.4269234523542025  0.5094632015605924   T   T   T
  0.0000000000000000  0.2197167458193121  0.7056620773029039   T   T   T
  0.0000000000000000  0.0734083830172167  0.5736597616100028   T   T   T
  0.5000000000000000  0.0766014084124222  0.7059380254737846   T   T   T
  0.5000000000000000  0.2164453230237768  0.5724750250103980   T   T   T
  0.2978520215376506  0.3582757417993321  0.0869482191497397   T   T   T
  0.2981457293497343  0.9409377032933790  0.3366411222133863   T   T   T
  0.7978645025904640  0.9270417758266092  0.0878186427545415   T   T   T
  0.7980972293529049  0.3710316498510124  0.3312900932554257   T   T   T
  0.7021479784623494  0.3582757417993321  0.0869482191497397   T   T   T
  0.7018542706502657  0.9409377032933790  0.3366411222133863   T   T   T
  0.2021354974095360  0.9270417758266092  0.0878186427545415   T   T   T
  0.2019027706470951  0.3710316498510124  0.3312900932554257   T   T   T
  0.5000000000000000  0.5808843517068212  0.0307560953723467   T   T   T
  0.5000000000000000  0.7160088594908061  0.3916992418331020   T   T   T
  0.0000000000000000  0.7066535346551817  0.0309629139260181   T   T   T
  0.0000000000000000  0.5884031648646868  0.3900514536950226   T   T   T
  0.5000000000000000  0.6393338999724278  0.8906039720718368   T   T   T
  0.0000000000000000  0.6525803746751109  0.8906623035605961   T   T   T
  0.0000000000000000  0.1472809771371999  0.2105600193181019   T   T   T
  0.5000000000000000  0.1422009395932804  0.2104155897154598   T   T   T
 
  0.00000000E+00  0.00000000E+00  0.00000000E+00
  0.00000000E+00  0.00000000E+00  0.00000000E+00
  0.00000000E+00  0.00000000E+00  0.00000000E+00
  0.00000000E+00  0.00000000E+00  0.00000000E+00
  0.00000000E+00  0.00000000E+00  0.00000000E+00
  0.00000000E+00  0.00000000E+00  0.00000000E+00
  0.00000000E+00  0.00000000E+00  0.00000000E+00
  0.00000000E+00  0.00000000E+00  0.00000000E+00
  0.00000000E+00  0.00000000E+00  0.00000000E+00
  0.00000000E+00  0.00000000E+00  0.00000000E+00
  0.00000000E+00  0.00000000E+00  0.00000000E+00
  0.00000000E+00  0.00000000E+00  0.00000000E+00
  0.00000000E+00  0.00000000E+00  0.00000000E+00
  0.00000000E+00  0.00000000E+00  0.00000000E+00
  0.00000000E+00  0.00000000E+00  0.00000000E+00
  0.00000000E+00  0.00000000E+00  0.00000000E+00
  0.00000000E+00  0.00000000E+00  0.00000000E+00
  0.00000000E+00  0.00000000E+00  0.00000000E+00
  0.00000000E+00  0.00000000E+00  0.00000000E+00
  0.00000000E+00  0.00000000E+00  0.00000000E+00
  0.00000000E+00  0.00000000E+00  0.00000000E+00
  0.00000000E+00  0.00000000E+00  0.00000000E+00
  0.00000000E+00  0.00000000E+00  0.00000000E+00
  0.00000000E+00  0.00000000E+00  0.00000000E+00
  0.00000000E+00  0.00000000E+00  0.00000000E+00
  0.00000000E+00  0.00000000E+00  0.00000000E+00
  0.00000000E+00  0.00000000E+00  0.00000000E+00
  0.00000000E+00  0.00000000E+00  0.00000000E+00
  0.00000000E+00  0.00000000E+00  0.00000000E+00
  0.00000000E+00  0.00000000E+00  0.00000000E+00
  0.00000000E+00  0.00000000E+00  0.00000000E+00
  0.00000000E+00  0.00000000E+00  0.00000000E+00
  0.00000000E+00  0.00000000E+00  0.00000000E+00
  0.00000000E+00  0.00000000E+00  0.00000000E+00
  0.00000000E+00  0.00000000E+00  0.00000000E+00
  0.00000000E+00  0.00000000E+00  0.00000000E+00
  0.00000000E+00  0.00000000E+00  0.00000000E+00
  0.00000000E+00  0.00000000E+00  0.00000000E+00
  0.00000000E+00  0.00000000E+00  0.00000000E+00
  0.00000000E+00  0.00000000E+00  0.00000000E+00
  0.00000000E+00  0.00000000E+00  0.00000000E+00
  0.00000000E+00  0.00000000E+00  0.00000000E+00
  0.00000000E+00  0.00000000E+00  0.00000000E+00
  0.00000000E+00  0.00000000E+00  0.00000000E+00
  0.00000000E+00  0.00000000E+00  0.00000000E+00
  0.00000000E+00  0.00000000E+00  0.00000000E+00
  0.00000000E+00  0.00000000E+00  0.00000000E+00
  0.00000000E+00  0.00000000E+00  0.00000000E+00
  0.00000000E+00  0.00000000E+00  0.00000000E+00
  0.00000000E+00  0.00000000E+00  0.00000000E+00
  0.00000000E+00  0.00000000E+00  0.00000000E+00
  0.00000000E+00  0.00000000E+00  0.00000000E+00
  0.00000000E+00  0.00000000E+00  0.00000000E+00
  0.00000000E+00  0.00000000E+00  0.00000000E+00
  0.00000000E+00  0.00000000E+00  0.00000000E+00
  0.00000000E+00  0.00000000E+00  0.00000000E+00
