Primitive Cell                          
   1.00000000000000     
     4.9407843559950804    0.0648145370039357    0.0072139511818839
     2.5152061811154844   10.3357655058995537    0.9195802170527255
     0.0232439519970126    2.3271463621017205    5.7707580269182452
   Li   C    O    F 
    10     4    12     2
Selective dynamics
Direct
  0.6771207743696905  0.8554308934606993  0.3141176950926408   T   T   T
  0.3228792256303095  0.1445691065393078  0.6858823049073592   T   T   T
  0.9297486690126107  0.3220326796527786  0.1772206350445558   T   T   T
  0.2483515277783397  0.7117904078614714  0.2058708254237018   T   T   T
  0.0702513309873893  0.6779673203472214  0.8227793649554442   T   T   T
  0.7516484722216532  0.2882095921385286  0.7941291745762982   T   T   T
  0.6277787359463645  0.5922615367916109  0.6652230193177573   T   T   T
  0.9414728923792239  0.9517687406391175  0.8512187215592348   T   T   T
  0.0585271076207690  0.0482312593608825  0.1487812784407652   T   T   T
  0.3722212640536355  0.4077384632083891  0.3347769806822427   T   T   T
  0.5020633762562809  0.8427961507831725  0.7622758214857726   T   T   T
  0.1982754240723850  0.4301437794754221  0.7434444435302581   T   T   T
  0.4979366237437191  0.1572038492168275  0.2377241785142274   T   T   T
  0.8017245759276150  0.5698562205245779  0.2565555564697419   T   T   T
  0.5693952121427799  0.9458085967709948  0.7842679742166681   T   T   T
  0.2846925584432185  0.5379562702115095  0.7282278247901246   T   T   T
  0.6756158680905031  0.7638559534898590  0.6804105038890498   T   T   T
  0.3551792147879596  0.3339575557272383  0.6871434905297846   T   T   T
  0.2643249289312521  0.8135274722385759  0.8243202022032037   T   T   T
  0.9524968204366573  0.4179264701385748  0.8145330731650802   T   T   T
  0.4306047878572201  0.0541914032290052  0.2157320257833319   T   T   T
  0.7153074415567744  0.4620437297884905  0.2717721752098754   T   T   T
  0.3243841319094969  0.2361440465101410  0.3195894961109431   T   T   T
  0.6448207852120476  0.6660424442727617  0.3128565094702083   T   T   T
  0.7356750710687479  0.1864725277614241  0.1756797977968034   T   T   T
  0.0475031795633427  0.5820735298614252  0.1854669268349198   T   T   T
  0.0181186611621342  0.8721201243651677  0.2069280451648652   T   T   T
  0.9818813388378658  0.1278798756348323  0.7930719548351348   T   T   T
 
  0.00000000E+00  0.00000000E+00  0.00000000E+00
  0.00000000E+00  0.00000000E+00  0.00000000E+00
  0.00000000E+00  0.00000000E+00  0.00000000E+00
  0.00000000E+00  0.00000000E+00  0.00000000E+00
  0.00000000E+00  0.00000000E+00  0.00000000E+00
  0.00000000E+00  0.00000000E+00  0.00000000E+00
  0.00000000E+00  0.00000000E+00  0.00000000E+00
  0.00000000E+00  0.00000000E+00  0.00000000E+00
  0.00000000E+00  0.00000000E+00  0.00000000E+00
  0.00000000E+00  0.00000000E+00  0.00000000E+00
  0.00000000E+00  0.00000000E+00  0.00000000E+00
  0.00000000E+00  0.00000000E+00  0.00000000E+00
  0.00000000E+00  0.00000000E+00  0.00000000E+00
  0.00000000E+00  0.00000000E+00  0.00000000E+00
  0.00000000E+00  0.00000000E+00  0.00000000E+00
  0.00000000E+00  0.00000000E+00  0.00000000E+00
  0.00000000E+00  0.00000000E+00  0.00000000E+00
  0.00000000E+00  0.00000000E+00  0.00000000E+00
  0.00000000E+00  0.00000000E+00  0.00000000E+00
  0.00000000E+00  0.00000000E+00  0.00000000E+00
  0.00000000E+00  0.00000000E+00  0.00000000E+00
  0.00000000E+00  0.00000000E+00  0.00000000E+00
  0.00000000E+00  0.00000000E+00  0.00000000E+00
  0.00000000E+00  0.00000000E+00  0.00000000E+00
  0.00000000E+00  0.00000000E+00  0.00000000E+00
  0.00000000E+00  0.00000000E+00  0.00000000E+00
  0.00000000E+00  0.00000000E+00  0.00000000E+00
  0.00000000E+00  0.00000000E+00  0.00000000E+00
