Primitive Cell                          
   1.00000000000000     
     4.9658077090774491   -0.0025368741836016    0.2297256466682650
    -0.0122143159376006    8.5105049624672304    0.5091714408013368
     2.7333149671703221    3.5380171262620688    7.5830277654551317
   Li   C    O    F 
    10     4    12     2
Selective dynamics
Direct
  0.5245376778362143  0.4103226021799813  0.5548281946290601   T   T   T
  0.0478841531440537  0.5476345311689315  0.2534613497994016   T   T   T
  0.0233819763039520  0.2150592835416845  0.5556300527654940   T   T   T
  0.5810521558578401  0.0651651493321239  0.2171064784692334   T   T   T
  0.5271198189604789  0.7075143769475858  0.6143874315195959   T   T   T
  0.0764327812971999  0.8833481442514071  0.2243387686217559   T   T   T
  0.0320058825016858  0.8600670098038350  0.6136798455226327   T   T   T
  0.0670084452300301  0.5181659923346515  0.8973266805462146   T   T   T
  0.5453210726420252  0.3671616690659576  0.2570285403865284   T   T   T
  0.5687043615969856  0.7628037004086607  0.8978364512180192   T   T   T
  0.5820088923597808  0.7309738795157656  0.2014863154993307   T   T   T
  0.0837022474642666  0.2380101818603819  0.1968230657147672   T   T   T
  0.5326679334537872  0.0529608897868457  0.5678087898796917   T   T   T
  0.0302582812520384  0.5604452609748520  0.5664993360624564   T   T   T
  0.4503302555572262  0.9531691380481817  0.5099422950563266   T   T   T
  0.9499654709614802  0.7149978014599299  0.5092095026969403   T   T   T
  0.7234248062724191  0.0099786812292990  0.6428353414518568   T   T   T
  0.6535954861615778  0.5740225491854858  0.2708534785190722   T   T   T
  0.4254753467162473  0.1970207341772294  0.5477912520841173   T   T   T
  0.8694737269872803  0.2778286601139470  0.1393320965498361   T   T   T
  0.1536597898578194  0.3257181725759040  0.2707625022057840   T   T   T
  0.2235422749508515  0.5319624602454169  0.6395003291810468   T   T   T
  0.7183163231765448  0.8664375168834795  0.1889292555429307   T   T   T
  0.9195281792663863  0.4351741017974149  0.5484122033582821   T   T   T
  0.3644349968636291  0.7469179399263908  0.1468591856424268   T   T   T
  0.2185684797040750  0.1138144545119744  0.1831589858531260   T   T   T
  0.9428217345167411  0.7292271375220878  0.8619306412387004   T   T   T
  0.4397988175140739  0.5871902952353736  0.8641842143698355   T   T   T
 
  0.00000000E+00  0.00000000E+00  0.00000000E+00
  0.00000000E+00  0.00000000E+00  0.00000000E+00
  0.00000000E+00  0.00000000E+00  0.00000000E+00
  0.00000000E+00  0.00000000E+00  0.00000000E+00
  0.00000000E+00  0.00000000E+00  0.00000000E+00
  0.00000000E+00  0.00000000E+00  0.00000000E+00
  0.00000000E+00  0.00000000E+00  0.00000000E+00
  0.00000000E+00  0.00000000E+00  0.00000000E+00
  0.00000000E+00  0.00000000E+00  0.00000000E+00
  0.00000000E+00  0.00000000E+00  0.00000000E+00
  0.00000000E+00  0.00000000E+00  0.00000000E+00
  0.00000000E+00  0.00000000E+00  0.00000000E+00
  0.00000000E+00  0.00000000E+00  0.00000000E+00
  0.00000000E+00  0.00000000E+00  0.00000000E+00
  0.00000000E+00  0.00000000E+00  0.00000000E+00
  0.00000000E+00  0.00000000E+00  0.00000000E+00
  0.00000000E+00  0.00000000E+00  0.00000000E+00
  0.00000000E+00  0.00000000E+00  0.00000000E+00
  0.00000000E+00  0.00000000E+00  0.00000000E+00
  0.00000000E+00  0.00000000E+00  0.00000000E+00
  0.00000000E+00  0.00000000E+00  0.00000000E+00
  0.00000000E+00  0.00000000E+00  0.00000000E+00
  0.00000000E+00  0.00000000E+00  0.00000000E+00
  0.00000000E+00  0.00000000E+00  0.00000000E+00
  0.00000000E+00  0.00000000E+00  0.00000000E+00
  0.00000000E+00  0.00000000E+00  0.00000000E+00
  0.00000000E+00  0.00000000E+00  0.00000000E+00
  0.00000000E+00  0.00000000E+00  0.00000000E+00
