Primitive Cell                          
   1.00000000000000     
     4.7045106892082798    0.0000000000000000    0.0000000000000000
     0.0000000000000000    7.9615228750721991    0.0000000000000000
     0.0000000000000000    0.0000000000000000    8.2662413874240421
   Li   C    O    F 
    10     4    12     2
Selective dynamics
Direct
  0.5000000000000000  0.0000000000000000  0.0000000000000000   T   T   T
  0.0000000000000000  0.5000000000000000  0.5000000000000000   T   T   T
  0.4226239889933439  0.6798775646974846  0.8472223883800822   T   T   T
  0.9226239889933439  0.8201224353025154  0.3472223883800822   T   T   T
  0.5773760110066561  0.3201224353025154  0.1527776116199178   T   T   T
  0.0773760110066561  0.1798775646974846  0.6527776116199178   T   T   T
  0.0773760110066561  0.1798775646974846  0.3472223883800822   T   T   T
  0.5773760110066561  0.3201224353025154  0.8472223883800822   T   T   T
  0.4226239889933439  0.6798775646974846  0.1527776116199178   T   T   T
  0.9226239889933439  0.8201224353025154  0.6527776116199178   T   T   T
  0.9057049621257249  0.8174814864070044  0.0000000000000000   T   T   T
  0.4057049621257249  0.6825185135929956  0.5000000000000000   T   T   T
  0.5942950378742751  0.3174814864070044  0.5000000000000000   T   T   T
  0.0942950378742751  0.1825185135929956  0.0000000000000000   T   T   T
  0.7633280499032367  0.8295672935562948  0.1349009215019521   T   T   T
  0.2633280499032367  0.6704327064437052  0.6349009215019521   T   T   T
  0.1780069623776441  0.8001466189537823  0.0000000000000000   T   T   T
  0.6780069623776441  0.6998533810462177  0.5000000000000000   T   T   T
  0.2633280499032367  0.6704327064437052  0.3650990784980479   T   T   T
  0.7633280499032367  0.8295672935562948  0.8650990784980479   T   T   T
  0.7366719500967633  0.3295672935562948  0.3650990784980479   T   T   T
  0.2366719500967633  0.1704327064437052  0.8650990784980479   T   T   T
  0.3219930376223559  0.3001466189537894  0.5000000000000000   T   T   T
  0.8219930376223559  0.1998533810462177  0.0000000000000000   T   T   T
  0.2366719500967633  0.1704327064437052  0.1349009215019521   T   T   T
  0.7366719500967633  0.3295672935562948  0.6349009215019521   T   T   T
  0.5000000000000000  0.5000000000000000  0.0000000000000000   T   T   T
  0.0000000000000000  0.0000000000000000  0.5000000000000000   T   T   T
 
  0.00000000E+00  0.00000000E+00  0.00000000E+00
  0.00000000E+00  0.00000000E+00  0.00000000E+00
  0.00000000E+00  0.00000000E+00  0.00000000E+00
  0.00000000E+00  0.00000000E+00  0.00000000E+00
  0.00000000E+00  0.00000000E+00  0.00000000E+00
  0.00000000E+00  0.00000000E+00  0.00000000E+00
  0.00000000E+00  0.00000000E+00  0.00000000E+00
  0.00000000E+00  0.00000000E+00  0.00000000E+00
  0.00000000E+00  0.00000000E+00  0.00000000E+00
  0.00000000E+00  0.00000000E+00  0.00000000E+00
  0.00000000E+00  0.00000000E+00  0.00000000E+00
  0.00000000E+00  0.00000000E+00  0.00000000E+00
  0.00000000E+00  0.00000000E+00  0.00000000E+00
  0.00000000E+00  0.00000000E+00  0.00000000E+00
  0.00000000E+00  0.00000000E+00  0.00000000E+00
  0.00000000E+00  0.00000000E+00  0.00000000E+00
  0.00000000E+00  0.00000000E+00  0.00000000E+00
  0.00000000E+00  0.00000000E+00  0.00000000E+00
  0.00000000E+00  0.00000000E+00  0.00000000E+00
  0.00000000E+00  0.00000000E+00  0.00000000E+00
  0.00000000E+00  0.00000000E+00  0.00000000E+00
  0.00000000E+00  0.00000000E+00  0.00000000E+00
  0.00000000E+00  0.00000000E+00  0.00000000E+00
  0.00000000E+00  0.00000000E+00  0.00000000E+00
  0.00000000E+00  0.00000000E+00  0.00000000E+00
  0.00000000E+00  0.00000000E+00  0.00000000E+00
  0.00000000E+00  0.00000000E+00  0.00000000E+00
  0.00000000E+00  0.00000000E+00  0.00000000E+00
