Primitive Cell                          
   1.00000000000000     
     5.5192370637602846   -0.0692330783478060    0.0150547296032167
    -0.1943917644236527    7.7441539913185737    0.2264693253319818
     0.0035766165795001    0.4601975815879162   13.6456785275406780
   Li   C    O    F 
    20     8    24     4
Selective dynamics
Direct
  0.4874691345093609  0.1709478391935875  0.8184982930479663   T   T   T
  0.0418315926531179  0.3314659270491092  0.8376398831307270   T   T   T
  0.2403529205071706  0.1214375603880598  0.0090563663987169   T   T   T
  0.9778519903259664  0.2959197841913408  0.2147302766700179   T   T   T
  0.1681442483399849  0.5857278306283504  0.3580615235380478   T   T   T
  0.6086323271054965  0.4193651463254113  0.3366575240471903   T   T   T
  0.9180073949444534  0.3005481577026927  0.5166919039512265   T   T   T
  0.2514625658183434  0.1055404907164572  0.6481921934304822   T   T   T
  0.9742898671179532  0.7643710074752477  0.9493647958969476   T   T   T
  0.9788234625042449  0.7573902171534996  0.7673036757214078   T   T   T
  0.4790510384499242  0.7749652125468032  0.9432867191729670   T   T   T
  0.4825597028787811  0.7734647492879390  0.7623443832078820   T   T   T
  0.7353759904170118  0.4583322883633372  0.6591935860628766   T   T   T
  0.6860111670018441  0.4339834286295385  0.9737602247368145   T   T   T
  0.6791046106666414  0.9998743114660300  0.4047431356604179   T   T   T
  0.6818901232684098  0.9825958526318246  0.2208812671848577   T   T   T
  0.1761768146727576  0.9841651327264174  0.4108739327887676   T   T   T
  0.1789658873264699  0.9693545992106039  0.2297281904491584   T   T   T
  0.4134633088404485  0.6214355939740273  0.1650025047250878   T   T   T
  0.4040256373571154  0.6513883687501476  0.5266829459008093   T   T   T
  0.7467796704897438  0.0794751509923657  0.9493179346218739   T   T   T
  0.4310271843948925  0.2616179269160170  0.1799248449202722   T   T   T
  0.4032514429420004  0.2820721168215101  0.4639620831482603   T   T   T
  0.7707718234798691  0.0622714488783345  0.6800344843295747   T   T   T
  0.2505255711484011  0.4737736565251822  0.7108776202914555   T   T   T
  0.2285528060906188  0.4831926262194912  0.9929610503784048   T   T   T
  0.9088121645472569  0.6632999173362322  0.2283237248746914   T   T   T
  0.8840751114964149  0.6961653816328663  0.4938773995512449   T   T   T
  0.6508539086292018  0.2212588308668018  0.1632395885132993   T   T   T
  0.9329472997458197  0.0015070292750679  0.9826647063486007   T   T   T
  0.2474137052126082  0.1720583333715950  0.1449464581310593   T   T   T
  0.5279752385617016  0.0126195754053740  0.9601738564205675   T   T   T
  0.2773179700050719  0.3534810141687927  0.9416401785088127   T   T   T
  0.3783590343617078  0.3888637137146915  0.2327432796561908   T   T   T
  0.7683209730129548  0.2288694289348712  0.8980357145175972   T   T   T
  0.8896640212157152  0.5146848572377891  0.2802043804409990   T   T   T
  0.9539918125271711  0.9633943076948555  0.6858506567171005   T   T   T
  0.6156346261524703  0.2289213466569890  0.4422314694929241   T   T   T
  0.5558220410956736  0.0053521676936725  0.7126750084045241   T   T   T
  0.2344412256940629  0.1760195242953273  0.5017131946130675   T   T   T
  0.8577387596276509  0.5395778430985345  0.5315718487566770   T   T   T
  0.7986327267207187  0.2200686126513389  0.6442433008972372   T   T   T
  0.3590145542544292  0.4437128609784580  0.4429963118948734   T   T   T
  0.2977496114417306  0.3126657508574979  0.7316653159931121   T   T   T
  0.4141944109613789  0.5700622476767023  0.0286957215045263   T   T   T
  0.4174003508183404  0.5807328910637466  0.6722409855117562   T   T   T
  0.0102329990725494  0.5289250146939679  0.0076312059445698   T   T   T
  0.0378684353625047  0.5252222475219597  0.7334289246660717   T   T   T
  0.0987624802037743  0.7527528247491517  0.4605582869372995   T   T   T
  0.1273886414631491  0.7313465437142668  0.2171551565165331   T   T   T
  0.7001663908877163  0.7942113275208769  0.4864952468665962   T   T   T
  0.7217044317569901  0.7407491010680474  0.1953532756833596   T   T   T
  0.2288057620935717  0.7834952889011504  0.8548783376289180   T   T   T
  0.7205931845917490  0.7092245902267251  0.8588152432590590   T   T   T
  0.9383798478909355  0.0525932316135425  0.3111475889167110   T   T   T
  0.4296883042314903  0.9696401238802395  0.3178153890022983   T   T   T
 
  0.00000000E+00  0.00000000E+00  0.00000000E+00
  0.00000000E+00  0.00000000E+00  0.00000000E+00
  0.00000000E+00  0.00000000E+00  0.00000000E+00
  0.00000000E+00  0.00000000E+00  0.00000000E+00
  0.00000000E+00  0.00000000E+00  0.00000000E+00
  0.00000000E+00  0.00000000E+00  0.00000000E+00
  0.00000000E+00  0.00000000E+00  0.00000000E+00
  0.00000000E+00  0.00000000E+00  0.00000000E+00
  0.00000000E+00  0.00000000E+00  0.00000000E+00
  0.00000000E+00  0.00000000E+00  0.00000000E+00
  0.00000000E+00  0.00000000E+00  0.00000000E+00
  0.00000000E+00  0.00000000E+00  0.00000000E+00
  0.00000000E+00  0.00000000E+00  0.00000000E+00
  0.00000000E+00  0.00000000E+00  0.00000000E+00
  0.00000000E+00  0.00000000E+00  0.00000000E+00
  0.00000000E+00  0.00000000E+00  0.00000000E+00
  0.00000000E+00  0.00000000E+00  0.00000000E+00
  0.00000000E+00  0.00000000E+00  0.00000000E+00
  0.00000000E+00  0.00000000E+00  0.00000000E+00
  0.00000000E+00  0.00000000E+00  0.00000000E+00
  0.00000000E+00  0.00000000E+00  0.00000000E+00
  0.00000000E+00  0.00000000E+00  0.00000000E+00
  0.00000000E+00  0.00000000E+00  0.00000000E+00
  0.00000000E+00  0.00000000E+00  0.00000000E+00
  0.00000000E+00  0.00000000E+00  0.00000000E+00
  0.00000000E+00  0.00000000E+00  0.00000000E+00
  0.00000000E+00  0.00000000E+00  0.00000000E+00
  0.00000000E+00  0.00000000E+00  0.00000000E+00
  0.00000000E+00  0.00000000E+00  0.00000000E+00
  0.00000000E+00  0.00000000E+00  0.00000000E+00
  0.00000000E+00  0.00000000E+00  0.00000000E+00
  0.00000000E+00  0.00000000E+00  0.00000000E+00
  0.00000000E+00  0.00000000E+00  0.00000000E+00
  0.00000000E+00  0.00000000E+00  0.00000000E+00
  0.00000000E+00  0.00000000E+00  0.00000000E+00
  0.00000000E+00  0.00000000E+00  0.00000000E+00
  0.00000000E+00  0.00000000E+00  0.00000000E+00
  0.00000000E+00  0.00000000E+00  0.00000000E+00
  0.00000000E+00  0.00000000E+00  0.00000000E+00
  0.00000000E+00  0.00000000E+00  0.00000000E+00
  0.00000000E+00  0.00000000E+00  0.00000000E+00
  0.00000000E+00  0.00000000E+00  0.00000000E+00
  0.00000000E+00  0.00000000E+00  0.00000000E+00
  0.00000000E+00  0.00000000E+00  0.00000000E+00
  0.00000000E+00  0.00000000E+00  0.00000000E+00
  0.00000000E+00  0.00000000E+00  0.00000000E+00
  0.00000000E+00  0.00000000E+00  0.00000000E+00
  0.00000000E+00  0.00000000E+00  0.00000000E+00
  0.00000000E+00  0.00000000E+00  0.00000000E+00
  0.00000000E+00  0.00000000E+00  0.00000000E+00
  0.00000000E+00  0.00000000E+00  0.00000000E+00
  0.00000000E+00  0.00000000E+00  0.00000000E+00
  0.00000000E+00  0.00000000E+00  0.00000000E+00
  0.00000000E+00  0.00000000E+00  0.00000000E+00
  0.00000000E+00  0.00000000E+00  0.00000000E+00
  0.00000000E+00  0.00000000E+00  0.00000000E+00
