Primitive Cell                          
   1.00000000000000     
     3.1945943434993227    0.0060810083367634    0.0009726854662909
    -0.1259420247359063    4.7085082682630013   -0.0053998063511220
    -1.3586194222612917   -0.1368229603591298   18.2525000011102030
   Li   C    O    F 
    10     4    12     2
Selective dynamics
Direct
  0.5940854822909074  0.1994757875083693  0.1662988488305572   T   T   T
  0.4778139110190125  0.6039000954761491  0.6917131281899245   T   T   T
  0.0673507685312700  0.7131344197832803  0.4081852881304115   T   T   T
  0.6089569611221819  0.6751338684965802  0.9835360077677464   T   T   T
  0.6209494535508426  0.1691190597393160  0.8838664622273100   T   T   T
  0.6428927420201163  0.1991422726484089  0.4584082362796238   T   T   T
  0.1075106368417025  0.1967872170179064  0.3086235641125157   T   T   T
  0.0697507248035194  0.5820857634010181  0.8322477772351817   T   T   T
  0.1145838691967853  0.6990094093715342  0.1258259591149340   T   T   T
  0.2236514274161365  0.1609312334889452  0.5988924231803452   T   T   T
  0.7053547560680613  0.7272661022784419  0.2516606228864688   T   T   T
  0.1120063045585695  0.0532982706459038  0.7543016900024497   T   T   T
  0.9969451475088604  0.2201972606457900  0.0406593311106604   T   T   T
  0.5852084046075419  0.7124772795748200  0.5361097176582490   T   T   T
  0.6143669502155973  0.9949619329817239  0.2583676161267761   T   T   T
  0.2481663127430238  0.2124219895825306  0.7045049081951831   T   T   T
  0.0738189479413975  0.1047801517641318  0.1055236952497154   T   T   T
  0.4516868532899210  0.5537039823198313  0.5862287806899502   T   T   T
  0.8755827751750473  0.5873855505335541  0.3052682810894183   T   T   T
  0.0837214333577947  0.1515484702935836  0.8211060546739830   T   T   T
  0.0986306901578402  0.4890862239165301  0.0337032218885867   T   T   T
  0.6876243718462547  0.9792710524616766  0.5492717441442068   T   T   T
  0.6283238950657974  0.6070551733212497  0.1866319962912684   T   T   T
  0.0129579127790578  0.7862912325863718  0.7408532421790497   T   T   T
  0.8152209939192616  0.0757549173455061  0.9874499429639059   T   T   T
  0.6075838173392114  0.6136128645441730  0.4690983100466823   T   T   T
  0.5912728842515023  0.5926875227814179  0.8862741809195001   T   T   T
  0.1222152767780713  0.1149226296095591  0.4060641884774583   T   T   T
 
  0.00000000E+00  0.00000000E+00  0.00000000E+00
  0.00000000E+00  0.00000000E+00  0.00000000E+00
  0.00000000E+00  0.00000000E+00  0.00000000E+00
  0.00000000E+00  0.00000000E+00  0.00000000E+00
  0.00000000E+00  0.00000000E+00  0.00000000E+00
  0.00000000E+00  0.00000000E+00  0.00000000E+00
  0.00000000E+00  0.00000000E+00  0.00000000E+00
  0.00000000E+00  0.00000000E+00  0.00000000E+00
  0.00000000E+00  0.00000000E+00  0.00000000E+00
  0.00000000E+00  0.00000000E+00  0.00000000E+00
  0.00000000E+00  0.00000000E+00  0.00000000E+00
  0.00000000E+00  0.00000000E+00  0.00000000E+00
  0.00000000E+00  0.00000000E+00  0.00000000E+00
  0.00000000E+00  0.00000000E+00  0.00000000E+00
  0.00000000E+00  0.00000000E+00  0.00000000E+00
  0.00000000E+00  0.00000000E+00  0.00000000E+00
  0.00000000E+00  0.00000000E+00  0.00000000E+00
  0.00000000E+00  0.00000000E+00  0.00000000E+00
  0.00000000E+00  0.00000000E+00  0.00000000E+00
  0.00000000E+00  0.00000000E+00  0.00000000E+00
  0.00000000E+00  0.00000000E+00  0.00000000E+00
  0.00000000E+00  0.00000000E+00  0.00000000E+00
  0.00000000E+00  0.00000000E+00  0.00000000E+00
  0.00000000E+00  0.00000000E+00  0.00000000E+00
  0.00000000E+00  0.00000000E+00  0.00000000E+00
  0.00000000E+00  0.00000000E+00  0.00000000E+00
  0.00000000E+00  0.00000000E+00  0.00000000E+00
  0.00000000E+00  0.00000000E+00  0.00000000E+00
