Primitive Cell                          
   1.00000000000000     
     4.2621584264222134   -0.4877802365553534   -1.8060438640924834
    -1.3671449688320265    7.6495290042365882    0.2368656283770801
    -3.8153639316250172   -4.6092148435988349   15.0961811240958461
   Li   C    O    F 
    15     6    18     3
Selective dynamics
Direct
  0.3530325910442471  0.6656756003972930  0.5758924217911598   T   T   T
  0.8534429055653945  0.5389788761640730  0.6338352755269696   T   T   T
  0.2233527755946909  0.7305653812081943  0.9839622855791959   T   T   T
  0.9742590888442564  0.2050272466656509  0.0887651407249379   T   T   T
  0.4541736666486926  0.9991639256879381  0.8547160850995539   T   T   T
  0.4656778270570641  0.3415944509376629  0.7130767868165151   T   T   T
  0.7435139063985190  0.7382229786678209  0.7844861725350398   T   T   T
  0.4170185430506734  0.0627328154313957  0.2327763124168598   T   T   T
  0.3564223410276028  0.4353392190967682  0.0025974325867182   T   T   T
  0.6789040822378496  0.7741402236257358  0.4514161760271165   T   T   T
  0.5477050470384128  0.3621138124770837  0.3841970110613175   T   T   T
  0.2260203483747532  0.1000013585312090  0.4949612990369516   T   T   T
  0.8805790124495729  0.7537738587471239  0.2302890938546653   T   T   T
  0.8933849217372369  0.3669747950228697  0.2137495100837441   T   T   T
  0.8838758832033520  0.9997446889503863  0.6413535457674797   T   T   T
  0.5821423170450615  0.0618753408889390  0.7133660916525884   T   T   T
  0.2452298984689776  0.0882330309008097  0.0168656450638593   T   T   T
  0.4546274752894561  0.6213082792585141  0.8634841484988911   T   T   T
  0.1279203481152393  0.6217168563006013  0.1277437544133448   T   T   T
  0.7412177956480903  0.1765166922476524  0.4744569959562028   T   T   T
  0.9880944765055801  0.6866331011853504  0.3774533945793266   T   T   T
  0.3284523400382540  0.9834456498443060  0.9680550362053211   T   T   T
  0.2882729533474944  0.7093954355795304  0.8038066290826436   T   T   T
  0.3861524384501607  0.1225513526047024  0.1167655650103399   T   T   T
  0.4442883803222202  0.1150850223111419  0.7587260176917354   T   T   T
  0.6702413285443427  0.9170237006217903  0.7163309274543508   T   T   T
  0.4418644571371715  0.6131355725306733  0.9396971442696795   T   T   T
  0.0205687359847957  0.1642121073979226  0.9695055291191963   T   T   T
  0.6415870415924516  0.5484145965652090  0.8441453682035132   T   T   T
  0.6392200399520362  0.1575518644967389  0.6622298665817681   T   T   T
  0.8461156988827412  0.0667288143215146  0.5243857682428157   T   T   T
  0.9450643294032943  0.8399295250125505  0.3679174825150398   T   T   T
  0.6231193951596055  0.2930724162195517  0.5018353397648596   T   T   T
  0.1628942294839746  0.7837994211959440  0.1817573315772947   T   T   T
  0.8947330149006447  0.4485071241629086  0.1078776625929123   T   T   T
  0.9248308264480869  0.6214494723480684  0.4364712005846201   T   T   T
  0.7633629368591386  0.1714290878664286  0.3981647146813359   T   T   T
  0.0891945304050310  0.6012172818675836  0.3278702400885862   T   T   T
  0.3208647811417720  0.6271676196984899  0.0924155211458455   T   T   T
  0.4557958188381335  0.5085112811827557  0.6448676046936868   T   T   T
  0.1729266514915082  0.2311234600460779  0.2353877280828911   T   T   T
  0.7568405976005153  0.7253353338600235  0.5707944137737400   T   T   T
 
  0.00000000E+00  0.00000000E+00  0.00000000E+00
  0.00000000E+00  0.00000000E+00  0.00000000E+00
  0.00000000E+00  0.00000000E+00  0.00000000E+00
  0.00000000E+00  0.00000000E+00  0.00000000E+00
  0.00000000E+00  0.00000000E+00  0.00000000E+00
  0.00000000E+00  0.00000000E+00  0.00000000E+00
  0.00000000E+00  0.00000000E+00  0.00000000E+00
  0.00000000E+00  0.00000000E+00  0.00000000E+00
  0.00000000E+00  0.00000000E+00  0.00000000E+00
  0.00000000E+00  0.00000000E+00  0.00000000E+00
  0.00000000E+00  0.00000000E+00  0.00000000E+00
  0.00000000E+00  0.00000000E+00  0.00000000E+00
  0.00000000E+00  0.00000000E+00  0.00000000E+00
  0.00000000E+00  0.00000000E+00  0.00000000E+00
  0.00000000E+00  0.00000000E+00  0.00000000E+00
  0.00000000E+00  0.00000000E+00  0.00000000E+00
  0.00000000E+00  0.00000000E+00  0.00000000E+00
  0.00000000E+00  0.00000000E+00  0.00000000E+00
  0.00000000E+00  0.00000000E+00  0.00000000E+00
  0.00000000E+00  0.00000000E+00  0.00000000E+00
  0.00000000E+00  0.00000000E+00  0.00000000E+00
  0.00000000E+00  0.00000000E+00  0.00000000E+00
  0.00000000E+00  0.00000000E+00  0.00000000E+00
  0.00000000E+00  0.00000000E+00  0.00000000E+00
  0.00000000E+00  0.00000000E+00  0.00000000E+00
  0.00000000E+00  0.00000000E+00  0.00000000E+00
  0.00000000E+00  0.00000000E+00  0.00000000E+00
  0.00000000E+00  0.00000000E+00  0.00000000E+00
  0.00000000E+00  0.00000000E+00  0.00000000E+00
  0.00000000E+00  0.00000000E+00  0.00000000E+00
  0.00000000E+00  0.00000000E+00  0.00000000E+00
  0.00000000E+00  0.00000000E+00  0.00000000E+00
  0.00000000E+00  0.00000000E+00  0.00000000E+00
  0.00000000E+00  0.00000000E+00  0.00000000E+00
  0.00000000E+00  0.00000000E+00  0.00000000E+00
  0.00000000E+00  0.00000000E+00  0.00000000E+00
  0.00000000E+00  0.00000000E+00  0.00000000E+00
  0.00000000E+00  0.00000000E+00  0.00000000E+00
  0.00000000E+00  0.00000000E+00  0.00000000E+00
  0.00000000E+00  0.00000000E+00  0.00000000E+00
  0.00000000E+00  0.00000000E+00  0.00000000E+00
  0.00000000E+00  0.00000000E+00  0.00000000E+00
