Primitive Cell                          
   1.00000000000000     
     5.5474677327903796    0.0000000000000000    0.0000000000000000
     0.0000000000000000    7.2444850724669054    0.0000000000000000
     0.0000000000000000    0.0000000000000000    9.6183433629739010
   Li   C    O    F 
    10     4    12     2
Selective dynamics
Direct
  0.2500000000000000  0.5000000000000000  0.5000000000000000   T   T   T
  0.7500000000000000  0.5000000000000000  0.5000000000000000   T   T   T
  0.2500000000000000  0.0000000000000000  0.8711511078863552   T   T   T
  0.2500000000000000  0.0000000000000000  0.1288488921136448   T   T   T
  0.7500000000000000  0.0000000000000000  0.8711511078863552   T   T   T
  0.7500000000000000  0.0000000000000000  0.1288488921136448   T   T   T
  0.0000000000000000  0.6648580506714126  0.2747493884876775   T   T   T
  0.0000000000000000  0.3351419493285874  0.7252506115123225   T   T   T
  0.5000000000000000  0.3351419493285874  0.2747493884876775   T   T   T
  0.5000000000000000  0.6648580506714126  0.7252506115123225   T   T   T
  0.5000000000000000  0.7164589897536047  0.2841099488590331   T   T   T
  0.5000000000000000  0.2835410102463953  0.7158900511409669   T   T   T
  0.0000000000000000  0.2835410102463953  0.2841099488590331   T   T   T
  0.0000000000000000  0.7164589897536047  0.7158900511409669   T   T   T
  0.2035559721016540  0.2172792970727713  0.2431092005293607   T   T   T
  0.2035559721016540  0.7827207029272287  0.7568907994706393   T   T   T
  0.7035559721016540  0.7827207029272287  0.2431092005293607   T   T   T
  0.7035559721016540  0.2172792970727713  0.7568907994706393   T   T   T
  0.7964440278983460  0.2172792970727713  0.2431092005293607   T   T   T
  0.7964440278983460  0.7827207029272287  0.7568907994706393   T   T   T
  0.2964440278983460  0.7827207029272287  0.2431092005293607   T   T   T
  0.2964440278983460  0.2172792970727713  0.7568907994706393   T   T   T
  0.0000000000000000  0.4251791293016325  0.3704652619698692   T   T   T
  0.0000000000000000  0.5748208706983675  0.6295347380301308   T   T   T
  0.5000000000000000  0.5748208706983675  0.3704652619698692   T   T   T
  0.5000000000000000  0.4251791293016325  0.6295347380301308   T   T   T
  0.5000000000000000  0.0000000000000000  0.0000000000000000   T   T   T
  0.0000000000000000  0.0000000000000000  0.0000000000000000   T   T   T
 
  0.00000000E+00  0.00000000E+00  0.00000000E+00
  0.00000000E+00  0.00000000E+00  0.00000000E+00
  0.00000000E+00  0.00000000E+00  0.00000000E+00
  0.00000000E+00  0.00000000E+00  0.00000000E+00
  0.00000000E+00  0.00000000E+00  0.00000000E+00
  0.00000000E+00  0.00000000E+00  0.00000000E+00
  0.00000000E+00  0.00000000E+00  0.00000000E+00
  0.00000000E+00  0.00000000E+00  0.00000000E+00
  0.00000000E+00  0.00000000E+00  0.00000000E+00
  0.00000000E+00  0.00000000E+00  0.00000000E+00
  0.00000000E+00  0.00000000E+00  0.00000000E+00
  0.00000000E+00  0.00000000E+00  0.00000000E+00
  0.00000000E+00  0.00000000E+00  0.00000000E+00
  0.00000000E+00  0.00000000E+00  0.00000000E+00
  0.00000000E+00  0.00000000E+00  0.00000000E+00
  0.00000000E+00  0.00000000E+00  0.00000000E+00
  0.00000000E+00  0.00000000E+00  0.00000000E+00
  0.00000000E+00  0.00000000E+00  0.00000000E+00
  0.00000000E+00  0.00000000E+00  0.00000000E+00
  0.00000000E+00  0.00000000E+00  0.00000000E+00
  0.00000000E+00  0.00000000E+00  0.00000000E+00
  0.00000000E+00  0.00000000E+00  0.00000000E+00
  0.00000000E+00  0.00000000E+00  0.00000000E+00
  0.00000000E+00  0.00000000E+00  0.00000000E+00
  0.00000000E+00  0.00000000E+00  0.00000000E+00
  0.00000000E+00  0.00000000E+00  0.00000000E+00
  0.00000000E+00  0.00000000E+00  0.00000000E+00
  0.00000000E+00  0.00000000E+00  0.00000000E+00
