Primitive Cell                          
   1.00000000000000     
     5.0056021608866503    0.0228430992563429   -0.0046049785242687
     0.8183501552108265    6.9158369618617375    0.0165153988849964
     1.6644269481223055    0.3032521920800462    8.0137999618514950
   Li   C    O    F 
    10     4    12     2
Selective dynamics
Direct
  0.9149203745309222  0.4754555299304357  0.8874322861263408   T   T   T
  0.4385509913329813  0.4634189444556540  0.4011184331012458   T   T   T
  0.3382921417098927  0.6027471488904368  0.0565738996627871   T   T   T
  0.8533372311496521  0.6401050469476104  0.5552450742726904   T   T   T
  0.7949642734026057  0.7531316198498175  0.2036185390388070   T   T   T
  0.1270374777906724  0.0484407587231104  0.9351426013658184   T   T   T
  0.7235653287630370  0.0626953217974844  0.4335108085306700   T   T   T
  0.4796239413249879  0.3422178898877135  0.7325920268229567   T   T   T
  0.5293400035026394  0.1837865639150920  0.0878600273577632   T   T   T
  0.2947449250923739  0.7925767694569430  0.6787823774219603   T   T   T
  0.9447935945694539  0.3240225954583806  0.1731860401019389   T   T   T
  0.0027187745640305  0.2680478329042799  0.6269299760666271   T   T   T
  0.2509875176458607  0.8303852644006753  0.3605679243219839   T   T   T
  0.7054835875967171  0.8467797192751334  0.8780774646278857   T   T   T
  0.9842299380618940  0.8306783126507895  0.3781509906945715   T   T   T
  0.4480872877757420  0.8491624478774185  0.8707020648087394   T   T   T
  0.1398718037294913  0.1873456132759372  0.1316978022466415   T   T   T
  0.1243784561165526  0.2508540302518512  0.7575762892255895   T   T   T
  0.7085095569108901  0.2833522890300060  0.2605480828983104   T   T   T
  0.7969463059853652  0.1728327426072696  0.6285811524946681   T   T   T
  0.3553481608643949  0.9346803084549720  0.4496930025523227   T   T   T
  0.7742432137391120  0.9429338276989796  0.9916061157184686   T   T   T
  0.4101983249586070  0.7115219525760708  0.2547736245749235   T   T   T
  0.8954168468796411  0.7393239519023638  0.7788096511143650   T   T   T
  0.9766094854595337  0.5030161608277552  0.1180963926809397   T   T   T
  0.0826323419154491  0.3899687839977091  0.5065781047350910   T   T   T
  0.5628596886243145  0.4062453379392181  0.9357699841073668   T   T   T
  0.5063091616380220  0.5676964801300883  0.5955503344783040   T   T   T
 
  0.00000000E+00  0.00000000E+00  0.00000000E+00
  0.00000000E+00  0.00000000E+00  0.00000000E+00
  0.00000000E+00  0.00000000E+00  0.00000000E+00
  0.00000000E+00  0.00000000E+00  0.00000000E+00
  0.00000000E+00  0.00000000E+00  0.00000000E+00
  0.00000000E+00  0.00000000E+00  0.00000000E+00
  0.00000000E+00  0.00000000E+00  0.00000000E+00
  0.00000000E+00  0.00000000E+00  0.00000000E+00
  0.00000000E+00  0.00000000E+00  0.00000000E+00
  0.00000000E+00  0.00000000E+00  0.00000000E+00
  0.00000000E+00  0.00000000E+00  0.00000000E+00
  0.00000000E+00  0.00000000E+00  0.00000000E+00
  0.00000000E+00  0.00000000E+00  0.00000000E+00
  0.00000000E+00  0.00000000E+00  0.00000000E+00
  0.00000000E+00  0.00000000E+00  0.00000000E+00
  0.00000000E+00  0.00000000E+00  0.00000000E+00
  0.00000000E+00  0.00000000E+00  0.00000000E+00
  0.00000000E+00  0.00000000E+00  0.00000000E+00
  0.00000000E+00  0.00000000E+00  0.00000000E+00
  0.00000000E+00  0.00000000E+00  0.00000000E+00
  0.00000000E+00  0.00000000E+00  0.00000000E+00
  0.00000000E+00  0.00000000E+00  0.00000000E+00
  0.00000000E+00  0.00000000E+00  0.00000000E+00
  0.00000000E+00  0.00000000E+00  0.00000000E+00
  0.00000000E+00  0.00000000E+00  0.00000000E+00
  0.00000000E+00  0.00000000E+00  0.00000000E+00
  0.00000000E+00  0.00000000E+00  0.00000000E+00
  0.00000000E+00  0.00000000E+00  0.00000000E+00
