Primitive Cell                          
   1.00000000000000     
     5.4756719326303767    0.0000000000000000    0.0000000000000000
     0.0000000000000000    5.4756719326303767    0.0000000000000000
     0.0000000000000000    0.0000000000000000    9.6616438343343454
   Li   C    O    F 
    10     4    12     2
Selective dynamics
Direct
  0.0000000000000000  0.0000000000000000  0.2500000000000000   T   T   T
  0.0000000000000000  0.0000000000000000  0.7500000000000000   T   T   T
  0.7974744568617922  0.3278171416729663  0.9589680280355211   T   T   T
  0.6721828583270337  0.2025255431382149  0.5410319719644789   T   T   T
  0.2025255431382149  0.6721828583270337  0.9589680280355211   T   T   T
  0.3278171416729663  0.7974744568617922  0.5410319719644789   T   T   T
  0.6721828583270337  0.7974744568617922  0.0410319719644789   T   T   T
  0.7974744568617922  0.6721828583270337  0.4589680280355211   T   T   T
  0.3278171416729663  0.2025255431382149  0.0410319719644789   T   T   T
  0.2025255431382149  0.3278171416729663  0.4589680280355211   T   T   T
  0.0000000000000000  0.5000000000000000  0.1945387061125032   T   T   T
  0.0000000000000000  0.5000000000000000  0.6945387061125032   T   T   T
  0.5000000000000000  0.0000000000000000  0.3054612938874968   T   T   T
  0.5000000000000000  0.0000000000000000  0.8054612938874968   T   T   T
  0.2952223327383052  0.9840580620555954  0.8748262266292457   T   T   T
  0.7047776672616948  0.9840580620555954  0.3748262266292457   T   T   T
  0.0000000000000000  0.5000000000000000  0.8271886362719343   T   T   T
  0.0000000000000000  0.5000000000000000  0.3271886362719343   T   T   T
  0.2952223327383052  0.0159419379444046  0.3748262266292457   T   T   T
  0.9840580620555954  0.7047776672616948  0.1251737733707543   T   T   T
  0.9840580620555954  0.2952223327383052  0.6251737733707543   T   T   T
  0.0159419379444046  0.7047776672616948  0.6251737733707543   T   T   T
  0.0159419379444046  0.2952223327383052  0.1251737733707543   T   T   T
  0.5000000000000000  0.0000000000000000  0.6728113637280657   T   T   T
  0.7047776672616948  0.0159419379444046  0.8748262266292457   T   T   T
  0.5000000000000000  0.0000000000000000  0.1728113637280657   T   T   T
  0.5000000000000000  0.5000000000000000  0.0000000000000000   T   T   T
  0.5000000000000000  0.5000000000000000  0.5000000000000000   T   T   T
 
  0.00000000E+00  0.00000000E+00  0.00000000E+00
  0.00000000E+00  0.00000000E+00  0.00000000E+00
  0.00000000E+00  0.00000000E+00  0.00000000E+00
  0.00000000E+00  0.00000000E+00  0.00000000E+00
  0.00000000E+00  0.00000000E+00  0.00000000E+00
  0.00000000E+00  0.00000000E+00  0.00000000E+00
  0.00000000E+00  0.00000000E+00  0.00000000E+00
  0.00000000E+00  0.00000000E+00  0.00000000E+00
  0.00000000E+00  0.00000000E+00  0.00000000E+00
  0.00000000E+00  0.00000000E+00  0.00000000E+00
  0.00000000E+00  0.00000000E+00  0.00000000E+00
  0.00000000E+00  0.00000000E+00  0.00000000E+00
  0.00000000E+00  0.00000000E+00  0.00000000E+00
  0.00000000E+00  0.00000000E+00  0.00000000E+00
  0.00000000E+00  0.00000000E+00  0.00000000E+00
  0.00000000E+00  0.00000000E+00  0.00000000E+00
  0.00000000E+00  0.00000000E+00  0.00000000E+00
  0.00000000E+00  0.00000000E+00  0.00000000E+00
  0.00000000E+00  0.00000000E+00  0.00000000E+00
  0.00000000E+00  0.00000000E+00  0.00000000E+00
  0.00000000E+00  0.00000000E+00  0.00000000E+00
  0.00000000E+00  0.00000000E+00  0.00000000E+00
  0.00000000E+00  0.00000000E+00  0.00000000E+00
  0.00000000E+00  0.00000000E+00  0.00000000E+00
  0.00000000E+00  0.00000000E+00  0.00000000E+00
  0.00000000E+00  0.00000000E+00  0.00000000E+00
  0.00000000E+00  0.00000000E+00  0.00000000E+00
  0.00000000E+00  0.00000000E+00  0.00000000E+00
