Primitive Cell                          
   1.00000000000000     
     4.9376285637934298   -0.0033703358433918    0.0353693355898209
     0.0761891211860462    5.3629037801649577   -0.0394955050335593
     0.3007603959401386   -0.1733626163817784   23.2914217841123978
   Li   C    O    F 
    20     8    24     4
Selective dynamics
Direct
  0.3953112791940825  0.8121175221064334  0.7873569994951310   T   T   T
  0.6075301853818402  0.0251305151207291  0.3411157933397888   T   T   T
  0.9015048858525034  0.5839020502997698  0.0474378758826575   T   T   T
  0.7539193764285628  0.0799296678093029  0.4739934771829795   T   T   T
  0.6975515569421873  0.0241144669075055  0.9201760527529856   T   T   T
  0.2288531746555336  0.7532795145825943  0.4602928819946257   T   T   T
  0.9895040575135852  0.9134019042085129  0.5805950602086298   T   T   T
  0.4062685247960047  0.3721762207745201  0.1091802288587616   T   T   T
  0.6916744378522139  0.6781137286616570  0.6607863448531504   T   T   T
  0.6140148674213677  0.8657333474166435  0.1576671567462427   T   T   T
  0.1736757714381270  0.7091418165500158  0.9038449315975114   T   T   T
  0.1039121341490770  0.6746189787070094  0.3344863170325780   T   T   T
  0.9972737774818228  0.4500651925857895  0.5778824318788764   T   T   T
  0.3741494464907618  0.8275487423765853  0.0290240099328685   T   T   T
  0.1828714158431524  0.3112867394559160  0.9823564945762584   T   T   T
  0.7296132882882560  0.5294277949550974  0.4158915677452271   T   T   T
  0.3546200419624626  0.2516018278221921  0.8482262978335697   T   T   T
  0.6253902808857674  0.4904474190961565  0.2848744945261288   T   T   T
  0.0763947766122755  0.1811084350218053  0.7102579600605168   T   T   T
  0.1085955884925056  0.3724075992279623  0.2065683370132874   T   T   T
  0.1573647478706590  0.6861348552047559  0.6800193854822183   T   T   T
  0.1549457663425144  0.8040950438838621  0.1795824505436201   T   T   T
  0.9268953951500265  0.0456717659645278  0.8293897689309162   T   T   T
  0.1183428202410397  0.1919074780193739  0.2981342105800735   T   T   T
  0.6421174021070684  0.5337328927657765  0.9462266508631032   T   T   T
  0.2463841240284168  0.2559801456730852  0.4236081924617991   T   T   T
  0.5199586996519727  0.6968729658210719  0.5374487177677736   T   T   T
  0.8446702823416103  0.0690832527576219  0.0611644897543613   T   T   T
  0.5135089817913823  0.3284677120352768  0.9365285921184920   T   T   T
  0.1027983129686874  0.0667945937744463  0.4366950282556488   T   T   T
  0.0562881623672453  0.0401716594212829  0.0278284594050220   T   T   T
  0.6156785571412797  0.7348406490379205  0.4858019780016605   T   T   T
  0.3813705109455796  0.6924393304046816  0.7068657389117732   T   T   T
  0.2556346399765914  0.3942795520295519  0.2855893113853867   T   T   T
  0.0857556757115887  0.0721902086823647  0.7853524193330514   T   T   T
  0.9174116357664985  0.7403094664057193  0.1973028738653539   T   T   T
  0.0327225242286389  0.8900920271784614  0.6644016365998056   T   T   T
  0.3352453791625791  0.6242090347888478  0.1688649472474495   T   T   T
  0.6663868635104322  0.0302966167133008  0.8259292139844518   T   T   T
  0.8576810076104948  0.2035521260616378  0.2920947265720741   T   T   T
  0.0378850463658722  0.0365487409188248  0.8801418454908898   T   T   T
  0.2418284968268551  0.9943178852513697  0.3141825456774896   T   T   T
  0.0401904870165097  0.4754975462731963  0.6670703750276985   T   T   T
  0.2285708693334740  0.0340676200765415  0.1721582636339605   T   T   T
  0.5064023194686555  0.7446142516386516  0.9481285901469718   T   T   T
  0.1299834071409691  0.4725295304259589  0.4147162025620474   T   T   T
  0.6791985992484371  0.6802406994304491  0.5802994841479716   T   T   T
  0.7041890441437388  0.8718706014240993  0.0750341238771171   T   T   T
  0.2581934473031779  0.6820461221691829  0.5443675525841982   T   T   T
  0.7644965653982965  0.2843605246138097  0.0805023428544516   T   T   T
  0.8996913866802885  0.5333334185501499  0.9550646899430504   T   T   T
  0.5100685380535666  0.2342730846152250  0.4186542098818578   T   T   T
  0.2645536920956957  0.5194364703970322  0.0466354848872470   T   T   T
  0.8657858077298854  0.1800584368453571  0.5459723095710771   T   T   T
  0.2808326130584291  0.5713140878491529  0.8348560068754125   T   T   T
  0.7212600600679480  0.6958790313927281  0.3464129718420281   T   T   T
 
  0.00000000E+00  0.00000000E+00  0.00000000E+00
  0.00000000E+00  0.00000000E+00  0.00000000E+00
  0.00000000E+00  0.00000000E+00  0.00000000E+00
  0.00000000E+00  0.00000000E+00  0.00000000E+00
  0.00000000E+00  0.00000000E+00  0.00000000E+00
  0.00000000E+00  0.00000000E+00  0.00000000E+00
  0.00000000E+00  0.00000000E+00  0.00000000E+00
  0.00000000E+00  0.00000000E+00  0.00000000E+00
  0.00000000E+00  0.00000000E+00  0.00000000E+00
  0.00000000E+00  0.00000000E+00  0.00000000E+00
  0.00000000E+00  0.00000000E+00  0.00000000E+00
  0.00000000E+00  0.00000000E+00  0.00000000E+00
  0.00000000E+00  0.00000000E+00  0.00000000E+00
  0.00000000E+00  0.00000000E+00  0.00000000E+00
  0.00000000E+00  0.00000000E+00  0.00000000E+00
  0.00000000E+00  0.00000000E+00  0.00000000E+00
  0.00000000E+00  0.00000000E+00  0.00000000E+00
  0.00000000E+00  0.00000000E+00  0.00000000E+00
  0.00000000E+00  0.00000000E+00  0.00000000E+00
  0.00000000E+00  0.00000000E+00  0.00000000E+00
  0.00000000E+00  0.00000000E+00  0.00000000E+00
  0.00000000E+00  0.00000000E+00  0.00000000E+00
  0.00000000E+00  0.00000000E+00  0.00000000E+00
  0.00000000E+00  0.00000000E+00  0.00000000E+00
  0.00000000E+00  0.00000000E+00  0.00000000E+00
  0.00000000E+00  0.00000000E+00  0.00000000E+00
  0.00000000E+00  0.00000000E+00  0.00000000E+00
  0.00000000E+00  0.00000000E+00  0.00000000E+00
  0.00000000E+00  0.00000000E+00  0.00000000E+00
  0.00000000E+00  0.00000000E+00  0.00000000E+00
  0.00000000E+00  0.00000000E+00  0.00000000E+00
  0.00000000E+00  0.00000000E+00  0.00000000E+00
  0.00000000E+00  0.00000000E+00  0.00000000E+00
  0.00000000E+00  0.00000000E+00  0.00000000E+00
  0.00000000E+00  0.00000000E+00  0.00000000E+00
  0.00000000E+00  0.00000000E+00  0.00000000E+00
  0.00000000E+00  0.00000000E+00  0.00000000E+00
  0.00000000E+00  0.00000000E+00  0.00000000E+00
  0.00000000E+00  0.00000000E+00  0.00000000E+00
  0.00000000E+00  0.00000000E+00  0.00000000E+00
  0.00000000E+00  0.00000000E+00  0.00000000E+00
  0.00000000E+00  0.00000000E+00  0.00000000E+00
  0.00000000E+00  0.00000000E+00  0.00000000E+00
  0.00000000E+00  0.00000000E+00  0.00000000E+00
  0.00000000E+00  0.00000000E+00  0.00000000E+00
  0.00000000E+00  0.00000000E+00  0.00000000E+00
  0.00000000E+00  0.00000000E+00  0.00000000E+00
  0.00000000E+00  0.00000000E+00  0.00000000E+00
  0.00000000E+00  0.00000000E+00  0.00000000E+00
  0.00000000E+00  0.00000000E+00  0.00000000E+00
  0.00000000E+00  0.00000000E+00  0.00000000E+00
  0.00000000E+00  0.00000000E+00  0.00000000E+00
  0.00000000E+00  0.00000000E+00  0.00000000E+00
  0.00000000E+00  0.00000000E+00  0.00000000E+00
  0.00000000E+00  0.00000000E+00  0.00000000E+00
  0.00000000E+00  0.00000000E+00  0.00000000E+00
