Primitive Cell                          
   1.00000000000000     
     5.0200017045101832   -0.0069663255476198   -0.0123791043691657
    -0.6610478196716177    8.2805881145474967   -0.0066754637271671
    -0.4211889522731738   -0.4386752085068943   10.9192644561763252
   Li   C    O    F 
    15     6    18     3
Selective dynamics
Direct
  0.8585557116613813  0.1891986897524447  0.8125017798045562   T   T   T
  0.7119430075717332  0.2564971970550758  0.3125547364022481   T   T   T
  0.7829545492662575  0.9163174688732596  0.9990404209910508   T   T   T
  0.4326202435952240  0.7462671683788500  0.3320907681955845   T   T   T
  0.2253014190342810  0.7987527304269619  0.5525905694396016   T   T   T
  0.2576736757795786  0.3646054411132695  0.9117733717987377   T   T   T
  0.2345127451900026  0.1069924087476224  0.4350578935613285   T   T   T
  0.4464466636658599  0.6134467526715994  0.0481883325006223   T   T   T
  0.9355630934010506  0.7600835003260045  0.1878475519998162   T   T   T
  0.8632494933275296  0.5703741841919836  0.8930373853503539   T   T   T
  0.3862389707205409  0.4250059245183522  0.4456783375951332   T   T   T
  0.2037128989020260  0.2307959471382759  0.1596640160765261   T   T   T
  0.2590482166499228  0.9888293978327738  0.8444792630590214   T   T   T
  0.8498346719988632  0.8199632881975134  0.7163750078070166   T   T   T
  0.8828648019968739  0.2922966938762812  0.5542232241238523   T   T   T
  0.2774637233291415  0.9094021357693620  0.0986546652111073   T   T   T
  0.3742883541376614  0.6712535700785338  0.7915653511953735   T   T   T
  0.3892159978374323  0.2464042478685542  0.6777002567327699   T   T   T
  0.7294926627705181  0.3365254667366884  0.0574035463397564   T   T   T
  0.9114083828754005  0.5767256341524316  0.3950802932685278   T   T   T
  0.7315334295892271  0.9732458418828216  0.4809954664559015   T   T   T
  0.4765777219615615  0.3662084405679735  0.0572346758708946   T   T   T
  0.8399889782133130  0.0971744053326375  0.4263579142348490   T   T   T
  0.6436997139426737  0.2394558256974761  0.6790091528580007   T   T   T
  0.7853574991692085  0.4507510192129658  0.4396464360542112   T   T   T
  0.1678025704409052  0.6093463891043882  0.4217296563892958   T   T   T
  0.7848508970675354  0.6683596155802931  0.3245693798091409   T   T   T
  0.0714513315756662  0.9849081102077335  0.1289603007980347   T   T   T
  0.4753425304992476  0.9313966737169039  0.4606334420338953   T   T   T
  0.6179700279624853  0.6472028526447460  0.7708130368477484   T   T   T
  0.3313547362059310  0.7822590046003342  0.1605930828023290   T   T   T
  0.4179475413214675  0.9541049785938540  0.0081098298061519   T   T   T
  0.8515780423200141  0.3021623138909604  0.1567780807355348   T   T   T
  0.2566448658374370  0.2111369482530208  0.7754629906184576   T   T   T
  0.8754970336474770  0.8937334635788261  0.5534441159749690   T   T   T
  0.2499265137589433  0.7782285101293667  0.7311136387668853   T   T   T
  0.2486028152578967  0.5911282838519583  0.8756195445703767   T   T   T
  0.2612989834461317  0.2856640616619330  0.5789562874019651   T   T   T
  0.8568553653487569  0.3447898272232095  0.9549572080722939   T   T   T
  0.7958019262313272  0.6929049178966267  0.0327870315699172   T   T   T
  0.8793609982902737  0.9758397679509869  0.8475114390972536   T   T   T
  0.3419881046460063  0.2541300088040188  0.3206103321801947   T   T   T
 
  0.00000000E+00  0.00000000E+00  0.00000000E+00
  0.00000000E+00  0.00000000E+00  0.00000000E+00
  0.00000000E+00  0.00000000E+00  0.00000000E+00
  0.00000000E+00  0.00000000E+00  0.00000000E+00
  0.00000000E+00  0.00000000E+00  0.00000000E+00
  0.00000000E+00  0.00000000E+00  0.00000000E+00
  0.00000000E+00  0.00000000E+00  0.00000000E+00
  0.00000000E+00  0.00000000E+00  0.00000000E+00
  0.00000000E+00  0.00000000E+00  0.00000000E+00
  0.00000000E+00  0.00000000E+00  0.00000000E+00
  0.00000000E+00  0.00000000E+00  0.00000000E+00
  0.00000000E+00  0.00000000E+00  0.00000000E+00
  0.00000000E+00  0.00000000E+00  0.00000000E+00
  0.00000000E+00  0.00000000E+00  0.00000000E+00
  0.00000000E+00  0.00000000E+00  0.00000000E+00
  0.00000000E+00  0.00000000E+00  0.00000000E+00
  0.00000000E+00  0.00000000E+00  0.00000000E+00
  0.00000000E+00  0.00000000E+00  0.00000000E+00
  0.00000000E+00  0.00000000E+00  0.00000000E+00
  0.00000000E+00  0.00000000E+00  0.00000000E+00
  0.00000000E+00  0.00000000E+00  0.00000000E+00
  0.00000000E+00  0.00000000E+00  0.00000000E+00
  0.00000000E+00  0.00000000E+00  0.00000000E+00
  0.00000000E+00  0.00000000E+00  0.00000000E+00
  0.00000000E+00  0.00000000E+00  0.00000000E+00
  0.00000000E+00  0.00000000E+00  0.00000000E+00
  0.00000000E+00  0.00000000E+00  0.00000000E+00
  0.00000000E+00  0.00000000E+00  0.00000000E+00
  0.00000000E+00  0.00000000E+00  0.00000000E+00
  0.00000000E+00  0.00000000E+00  0.00000000E+00
  0.00000000E+00  0.00000000E+00  0.00000000E+00
  0.00000000E+00  0.00000000E+00  0.00000000E+00
  0.00000000E+00  0.00000000E+00  0.00000000E+00
  0.00000000E+00  0.00000000E+00  0.00000000E+00
  0.00000000E+00  0.00000000E+00  0.00000000E+00
  0.00000000E+00  0.00000000E+00  0.00000000E+00
  0.00000000E+00  0.00000000E+00  0.00000000E+00
  0.00000000E+00  0.00000000E+00  0.00000000E+00
  0.00000000E+00  0.00000000E+00  0.00000000E+00
  0.00000000E+00  0.00000000E+00  0.00000000E+00
  0.00000000E+00  0.00000000E+00  0.00000000E+00
  0.00000000E+00  0.00000000E+00  0.00000000E+00
