Primitive Cell                          
   1.00000000000000     
     4.8123076724239935   -0.0065711688408393   -0.1271010957296075
     2.3396312111736814    4.1952146228794049   -0.0593862559759702
     1.8267590882937073    1.1163277620251484   14.9422803340722030
   Li   C    O    F 
    10     4    12     2
Selective dynamics
Direct
  0.5135439268579916  0.4903215356978521  0.3496153016883525   T   T   T
  0.5801725201825434  0.8825610970368345  0.9220740387319424   T   T   T
  0.0390236788679914  0.3468176543231323  0.0405965642565960   T   T   T
  0.0633563324012840  0.3620883416515923  0.6234228995311781   T   T   T
  0.3585088273796373  0.6602991750329394  0.1281271588572963   T   T   T
  0.4000930624326173  0.7283332237477680  0.5458795672843024   T   T   T
  0.9169785501922618  0.2291053618236134  0.2185807057359810   T   T   T
  0.4571137852224396  0.8224762146953353  0.7325106697771986   T   T   T
  0.8498216967637404  0.7876571839244022  0.3998038278795519   T   T   T
  0.9422380853931926  0.2437924834072689  0.8431726777253701   T   T   T
  0.1880298645195069  0.1175281239340009  0.3822237278997065   T   T   T
  0.2359306501325662  0.5752391386722451  0.8823096581029333   T   T   T
  0.6602808679500853  0.0134286419715366  0.0928930250640292   T   T   T
  0.7142705615357627  0.0464500615787387  0.5890194976696890   T   T   T
  0.6766246504501083  0.7755208232560236  0.0544621391131699   T   T   T
  0.6902264857624729  0.7858987913455238  0.6150024133850991   T   T   T
  0.1829211975013934  0.3866295474098820  0.3796571424624915   T   T   T
  0.2356648957312757  0.3158742369373542  0.9190744445403212   T   T   T
  0.4288665477191955  0.8556289340853738  0.4131121102988615   T   T   T
  0.5032284731399130  0.5766999757244946  0.8567664920887594   T   T   T
  0.3861722130691305  0.2509152838505884  0.1127436896691165   T   T   T
  0.4617904949187093  0.3096002944989635  0.5699874290747644   T   T   T
  0.9500878565359798  0.1033322628631481  0.3516091587293602   T   T   T
  0.9714825592456933  0.8338792852643522  0.8719600972237416   T   T   T
  0.9202102998127160  0.0170066726660494  0.1102950938629874   T   T   T
  0.9899154220965514  0.0305476702938066  0.5822177160057649   T   T   T
  0.5525746977538049  0.6001626690632662  0.2315915385215490   T   T   T
  0.1599161471412955  0.2283353567780395  0.7399840882572590   T   T   T
 
  0.00000000E+00  0.00000000E+00  0.00000000E+00
  0.00000000E+00  0.00000000E+00  0.00000000E+00
  0.00000000E+00  0.00000000E+00  0.00000000E+00
  0.00000000E+00  0.00000000E+00  0.00000000E+00
  0.00000000E+00  0.00000000E+00  0.00000000E+00
  0.00000000E+00  0.00000000E+00  0.00000000E+00
  0.00000000E+00  0.00000000E+00  0.00000000E+00
  0.00000000E+00  0.00000000E+00  0.00000000E+00
  0.00000000E+00  0.00000000E+00  0.00000000E+00
  0.00000000E+00  0.00000000E+00  0.00000000E+00
  0.00000000E+00  0.00000000E+00  0.00000000E+00
  0.00000000E+00  0.00000000E+00  0.00000000E+00
  0.00000000E+00  0.00000000E+00  0.00000000E+00
  0.00000000E+00  0.00000000E+00  0.00000000E+00
  0.00000000E+00  0.00000000E+00  0.00000000E+00
  0.00000000E+00  0.00000000E+00  0.00000000E+00
  0.00000000E+00  0.00000000E+00  0.00000000E+00
  0.00000000E+00  0.00000000E+00  0.00000000E+00
  0.00000000E+00  0.00000000E+00  0.00000000E+00
  0.00000000E+00  0.00000000E+00  0.00000000E+00
  0.00000000E+00  0.00000000E+00  0.00000000E+00
  0.00000000E+00  0.00000000E+00  0.00000000E+00
  0.00000000E+00  0.00000000E+00  0.00000000E+00
  0.00000000E+00  0.00000000E+00  0.00000000E+00
  0.00000000E+00  0.00000000E+00  0.00000000E+00
  0.00000000E+00  0.00000000E+00  0.00000000E+00
  0.00000000E+00  0.00000000E+00  0.00000000E+00
  0.00000000E+00  0.00000000E+00  0.00000000E+00
