Primitive Cell                          
   1.00000000000000     
     4.9215034281949093   -0.0025332732574665    0.0010207391722055
    -0.7334446821939195    8.9986018372577874    0.0021121134732583
    -0.3910793759485116   -0.4994853830431366   10.0585539889795932
   Li   C    O    F 
    15     6    18     3
Selective dynamics
Direct
  0.6818928635099510  0.9527021793435466  0.3417769398829762   T   T   T
  0.0889239009941463  0.8786191559003953  0.6914872107368524   T   T   T
  0.6216129792857146  0.5716025604580679  0.3409790829305948   T   T   T
  0.3822123464920253  0.6284732965692896  0.9620483458206408   T   T   T
  0.2912443127965787  0.0970859067833203  0.9482434355230396   T   T   T
  0.2832761038299481  0.0678924664917986  0.2171798416618316   T   T   T
  0.8446107872244610  0.5356408011155409  0.9093845658403481   T   T   T
  0.0765761858348810  0.5308310324206715  0.6163280018924482   T   T   T
  0.5130326695877443  0.1113315935677264  0.6888067479437012   T   T   T
  0.1125495481401444  0.3276198429421910  0.3474326423050798   T   T   T
  0.0274292803024210  0.8171391856835584  0.0017804168820419   T   T   T
  0.5951392609883328  0.7318608645305389  0.5659202780774280   T   T   T
  0.6089662815454346  0.3313288720221550  0.1079964762469672   T   T   T
  0.0498068358188561  0.2446770441726613  0.6389103156388245   T   T   T
  0.1440651952218843  0.7595280818490693  0.4040716088297671   T   T   T
  0.5700878443537860  0.8386603484222661  0.8224761310202098   T   T   T
  0.7673300870998716  0.0455944414141314  0.0788135227195284   T   T   T
  0.1515509885916941  0.0456811798919077  0.4601480935745741   T   T   T
  0.0693746356620508  0.5678377942311954  0.1885523378257190   T   T   T
  0.5543166848131165  0.3945897839434380  0.5655092491460465   T   T   T
  0.3029310792400963  0.3859174999748092  0.8563087973102128   T   T   T
  0.2926202095364872  0.3797971488158680  0.5358400569573405   T   T   T
  0.0232562897515720  0.0145042047898940  0.0671813809407169   T   T   T
  0.6860914418597019  0.8995145470454560  0.7222871560467681   T   T   T
  0.8763609282135292  0.4708202479984820  0.2216729438545570   T   T   T
  0.1591343175178110  0.4894704160893895  0.8090195336659463   T   T   T
  0.0640108437578917  0.6186174929887827  0.0687737797111438   T   T   T
  0.6949880919442890  0.5187097261823084  0.5389181631303046   T   T   T
  0.4987628591045592  0.4295421671460531  0.9442119986666100   T   T   T
  0.3284801826993871  0.8726474539719717  0.8562194285388429   T   T   T
  0.2625527405360941  0.6154522007355894  0.2738377701839809   T   T   T
  0.6929526224597566  0.7411661416079411  0.8889394262265071   T   T   T
  0.2491841348175612  0.2485337291281979  0.8177374059154232   T   T   T
  0.3076490719383216  0.9639720387347523  0.3919894455643487   T   T   T
  0.6156573867855855  0.9732642381498877  0.1591224051854994   T   T   T
  0.6758965194186146  0.2911718854005869  0.6207561049916919   T   T   T
  0.1715004978236081  0.0517750112563249  0.5898670640029309   T   T   T
  0.9732999815496939  0.1178403997272639  0.3988447691620820   T   T   T
  0.6723113248946362  0.1459697181127169  0.0073505561417306   T   T   T
  0.7661910113932748  0.7710130263596469  0.4052824762523670   T   T   T
  0.2155300278895425  0.7208748895403261  0.5844993026995482   T   T   T
  0.3634885878531406  0.2744466080921555  0.2309191453326775   T   T   T
 
  0.00000000E+00  0.00000000E+00  0.00000000E+00
  0.00000000E+00  0.00000000E+00  0.00000000E+00
  0.00000000E+00  0.00000000E+00  0.00000000E+00
  0.00000000E+00  0.00000000E+00  0.00000000E+00
  0.00000000E+00  0.00000000E+00  0.00000000E+00
  0.00000000E+00  0.00000000E+00  0.00000000E+00
  0.00000000E+00  0.00000000E+00  0.00000000E+00
  0.00000000E+00  0.00000000E+00  0.00000000E+00
  0.00000000E+00  0.00000000E+00  0.00000000E+00
  0.00000000E+00  0.00000000E+00  0.00000000E+00
  0.00000000E+00  0.00000000E+00  0.00000000E+00
  0.00000000E+00  0.00000000E+00  0.00000000E+00
  0.00000000E+00  0.00000000E+00  0.00000000E+00
  0.00000000E+00  0.00000000E+00  0.00000000E+00
  0.00000000E+00  0.00000000E+00  0.00000000E+00
  0.00000000E+00  0.00000000E+00  0.00000000E+00
  0.00000000E+00  0.00000000E+00  0.00000000E+00
  0.00000000E+00  0.00000000E+00  0.00000000E+00
  0.00000000E+00  0.00000000E+00  0.00000000E+00
  0.00000000E+00  0.00000000E+00  0.00000000E+00
  0.00000000E+00  0.00000000E+00  0.00000000E+00
  0.00000000E+00  0.00000000E+00  0.00000000E+00
  0.00000000E+00  0.00000000E+00  0.00000000E+00
  0.00000000E+00  0.00000000E+00  0.00000000E+00
  0.00000000E+00  0.00000000E+00  0.00000000E+00
  0.00000000E+00  0.00000000E+00  0.00000000E+00
  0.00000000E+00  0.00000000E+00  0.00000000E+00
  0.00000000E+00  0.00000000E+00  0.00000000E+00
  0.00000000E+00  0.00000000E+00  0.00000000E+00
  0.00000000E+00  0.00000000E+00  0.00000000E+00
  0.00000000E+00  0.00000000E+00  0.00000000E+00
  0.00000000E+00  0.00000000E+00  0.00000000E+00
  0.00000000E+00  0.00000000E+00  0.00000000E+00
  0.00000000E+00  0.00000000E+00  0.00000000E+00
  0.00000000E+00  0.00000000E+00  0.00000000E+00
  0.00000000E+00  0.00000000E+00  0.00000000E+00
  0.00000000E+00  0.00000000E+00  0.00000000E+00
  0.00000000E+00  0.00000000E+00  0.00000000E+00
  0.00000000E+00  0.00000000E+00  0.00000000E+00
  0.00000000E+00  0.00000000E+00  0.00000000E+00
  0.00000000E+00  0.00000000E+00  0.00000000E+00
  0.00000000E+00  0.00000000E+00  0.00000000E+00
