Primitive Cell                          
   1.00000000000000     
     4.9321522311002743    0.0217882520742469   -0.0362477768634750
     0.0252681890022678    5.6069341517355449    0.1102246530772608
     0.0516368143008030    1.3669290192218715    5.9269144841718209
   Li   C    O    F 
     5     2     6     1
Selective dynamics
Direct
  0.9200563857266530  0.1068727029302181  0.5958344784978706   T   T   T
  0.6214515057529368  0.1974486275962946  0.1033686558962330   T   T   T
  0.1769191053695565  0.4454409593805408  0.2773343690463079   T   T   T
  0.6165100448149587  0.7719026249218430  0.0935760145771738   T   T   T
  0.3270608439860538  0.5793457765034589  0.7640685917422942   T   T   T
  0.3768276910875343  0.1015650486205999  0.7101762674345977   T   T   T
  0.0992617737009667  0.9461517057593412  0.2408792936712700   T   T   T
  0.9661149647219247  0.7499210725206211  0.2338628967668299   T   T   T
  0.2346718737437214  0.9108564207240946  0.7121970657209005   T   T   T
  0.9629852126728125  0.1447554945804157  0.2607192128204758   T   T   T
  0.3587082580748771  0.9508301687517360  0.2305585800000003   T   T   T
  0.6189848983019317  0.0822182509133569  0.8004058076910354   T   T   T
  0.2708619896554723  0.3189110379097926  0.6195467666932331   T   T   T
  0.4586151802024432  0.4934490682546198  0.0557824027320208   T   T   T
 
  0.00000000E+00  0.00000000E+00  0.00000000E+00
  0.00000000E+00  0.00000000E+00  0.00000000E+00
  0.00000000E+00  0.00000000E+00  0.00000000E+00
  0.00000000E+00  0.00000000E+00  0.00000000E+00
  0.00000000E+00  0.00000000E+00  0.00000000E+00
  0.00000000E+00  0.00000000E+00  0.00000000E+00
  0.00000000E+00  0.00000000E+00  0.00000000E+00
  0.00000000E+00  0.00000000E+00  0.00000000E+00
  0.00000000E+00  0.00000000E+00  0.00000000E+00
  0.00000000E+00  0.00000000E+00  0.00000000E+00
  0.00000000E+00  0.00000000E+00  0.00000000E+00
  0.00000000E+00  0.00000000E+00  0.00000000E+00
  0.00000000E+00  0.00000000E+00  0.00000000E+00
  0.00000000E+00  0.00000000E+00  0.00000000E+00
