Primitive Cell                          
   1.00000000000000     
     4.7523023371701782    0.0688385879368501    0.3224613516416055
    -0.8354374477427473    5.0414729343669249   -0.3069998600195529
    -0.7715808707620313   -0.5924491371753491    5.8489373087518270
   Li   C    O    F 
     5     2     6     1
Selective dynamics
Direct
  0.1403126349533252  0.7991291385495245  0.9920631848619195   T   T   T
  0.2743403286638326  0.3296950404921262  0.2218229314189557   T   T   T
  0.2278270613066056  0.2789380031951367  0.7212879345437102   T   T   T
  0.6655804040577138  0.9783128804358014  0.3434285180817014   T   T   T
  0.6796043068749711  0.5772166810417971  0.6464020802975696   T   T   T
  0.1832727598633497  0.7626861397053233  0.5080167999658087   T   T   T
  0.7550080263895822  0.2458325839467577  0.9817726900170669   T   T   T
  0.9496040107158308  0.8612385324081728  0.5376952785258737   T   T   T
  0.8917187352007758  0.0999925319448352  0.1002182235498381   T   T   T
  0.3233441286710033  0.7066296485499350  0.6849871546592539   T   T   T
  0.2749000808222775  0.7187144147656070  0.3049630197506730   T   T   T
  0.8990369464011252  0.4192378449215823  0.8736409033647021   T   T   T
  0.4807176085015854  0.2205389101974191  0.9750220141755577   T   T   T
  0.4830043422684795  0.2570600013931994  0.4748768891209565   T   T   T
 
  0.00000000E+00  0.00000000E+00  0.00000000E+00
  0.00000000E+00  0.00000000E+00  0.00000000E+00
  0.00000000E+00  0.00000000E+00  0.00000000E+00
  0.00000000E+00  0.00000000E+00  0.00000000E+00
  0.00000000E+00  0.00000000E+00  0.00000000E+00
  0.00000000E+00  0.00000000E+00  0.00000000E+00
  0.00000000E+00  0.00000000E+00  0.00000000E+00
  0.00000000E+00  0.00000000E+00  0.00000000E+00
  0.00000000E+00  0.00000000E+00  0.00000000E+00
  0.00000000E+00  0.00000000E+00  0.00000000E+00
  0.00000000E+00  0.00000000E+00  0.00000000E+00
  0.00000000E+00  0.00000000E+00  0.00000000E+00
  0.00000000E+00  0.00000000E+00  0.00000000E+00
  0.00000000E+00  0.00000000E+00  0.00000000E+00
