Primitive Cell                          
   1.00000000000000     
     4.8119340993813733    0.0504581838197591   -0.1088850428423837
    -2.3584149137229229    4.1389541200509390    0.4006851606107218
    -1.0505554753092008   -1.3856127499845152    7.4383928180384897
   Li   C    O    F 
     5     2     6     1
Selective dynamics
Direct
  0.8013954071911797  0.0981929172564477  0.7080084267213493   T   T   T
  0.3073528979540683  0.8784829504643881  0.4473013300554243   T   T   T
  0.6156761048350603  0.4924798976823723  0.3016247372111280   T   T   T
  0.0767468069241204  0.0159409579826431  0.0749688191903743   T   T   T
  0.5045971162961038  0.4109756989303150  0.8585891691178702   T   T   T
  0.9797795039889294  0.2024888817070547  0.3754864538803417   T   T   T
  0.1413683975789581  0.7599675017174619  0.7871811971981444   T   T   T
  0.7538033849178163  0.1965574558200771  0.4506474982885393   T   T   T
  0.2324407692637322  0.4701396446407031  0.3638762159792961   T   T   T
  0.3546782935102115  0.9885480676865583  0.7106287302664001   T   T   T
  0.1539833279437843  0.5040480420274633  0.8197118067939613   T   T   T
  0.9068952607830809  0.7965362206326958  0.8309665021286534   T   T   T
  0.9550485935610453  0.9344059640406854  0.3104189747862449   T   T   T
  0.5034489378317559  0.2748187949263468  0.0823179176216939   T   T   T
 
  0.00000000E+00  0.00000000E+00  0.00000000E+00
  0.00000000E+00  0.00000000E+00  0.00000000E+00
  0.00000000E+00  0.00000000E+00  0.00000000E+00
  0.00000000E+00  0.00000000E+00  0.00000000E+00
  0.00000000E+00  0.00000000E+00  0.00000000E+00
  0.00000000E+00  0.00000000E+00  0.00000000E+00
  0.00000000E+00  0.00000000E+00  0.00000000E+00
  0.00000000E+00  0.00000000E+00  0.00000000E+00
  0.00000000E+00  0.00000000E+00  0.00000000E+00
  0.00000000E+00  0.00000000E+00  0.00000000E+00
  0.00000000E+00  0.00000000E+00  0.00000000E+00
  0.00000000E+00  0.00000000E+00  0.00000000E+00
  0.00000000E+00  0.00000000E+00  0.00000000E+00
  0.00000000E+00  0.00000000E+00  0.00000000E+00
