Primitive Cell                          
   1.00000000000000     
     5.0068662968735902    0.0403714585250445   -0.0413587266277527
     0.3954681736608044    8.1048679379580033    0.3940113678020157
     1.9820981286480992    3.8409518605268982    8.0885374949833366
   Li   C    O    F 
    10     4    12     2
Selective dynamics
Direct
  0.0372734272501631  0.1753460340409347  0.7432754932332770   T   T   T
  0.6740689501339290  0.6428961955126411  0.6957082078727410   T   T   T
  0.0971079302485123  0.8232944942931013  0.7551145132878290   T   T   T
  0.5115262108948571  0.2446498689438670  0.8167369631525077   T   T   T
  0.0250947221299000  0.6700254033862763  0.4202049140606547   T   T   T
  0.4331802665001234  0.8776061129882180  0.4713542237325186   T   T   T
  0.2543937113210362  0.8258378966531055  0.0421916848113781   T   T   T
  0.7472596768596702  0.2556346155390017  0.0845557061374222   T   T   T
  0.2614367691696060  0.4670803657034313  0.0125635288471884   T   T   T
  0.7029457486862682  0.8648787682688379  0.2082766290942928   T   T   T
  0.5721742749172947  0.9806884954197486  0.7215173712048255   T   T   T
  0.1955160535234057  0.5276005658014711  0.6691947243519323   T   T   T
  0.7488739573815977  0.6348860586451224  0.0425413754850297   T   T   T
  0.2100366147022115  0.0614837441075480  0.1984057615343247   T   T   T
  0.3785540768286282  0.0432191093929646  0.8013766715505639   T   T   T
  0.3432347999953365  0.4692085642963093  0.7830451274830281   T   T   T
  0.1542302597432084  0.4349096686189924  0.5946979507303993   T   T   T
  0.4941791264357249  0.8725646199244252  0.6682037485150047   T   T   T
  0.8258462840958813  0.0187424811851571  0.7012673533939875   T   T   T
  0.0838084035593454  0.6912651245218697  0.6251095921654155   T   T   T
  0.5911942888738153  0.7226275816634598  0.1092779738008858   T   T   T
  0.4489362845822171  0.0464075581962931  0.2395681541546395   T   T   T
  0.0970658578608763  0.9145463282030946  0.2061128921608741   T   T   T
  0.6502796717899386  0.5218377295271850  0.0010004220602582   T   T   T
  0.0165367268308145  0.6639059615632732  0.0100658378644241   T   T   T
  0.0928639467828134  0.2165913608413348  0.1513251991230007   T   T   T
  0.6613396499362523  0.7023353211758447  0.4524884981297177   T   T   T
  0.7962374901430920  0.2033141849299298  0.9095855389353460   T   T   T
 
  0.00000000E+00  0.00000000E+00  0.00000000E+00
  0.00000000E+00  0.00000000E+00  0.00000000E+00
  0.00000000E+00  0.00000000E+00  0.00000000E+00
  0.00000000E+00  0.00000000E+00  0.00000000E+00
  0.00000000E+00  0.00000000E+00  0.00000000E+00
  0.00000000E+00  0.00000000E+00  0.00000000E+00
  0.00000000E+00  0.00000000E+00  0.00000000E+00
  0.00000000E+00  0.00000000E+00  0.00000000E+00
  0.00000000E+00  0.00000000E+00  0.00000000E+00
  0.00000000E+00  0.00000000E+00  0.00000000E+00
  0.00000000E+00  0.00000000E+00  0.00000000E+00
  0.00000000E+00  0.00000000E+00  0.00000000E+00
  0.00000000E+00  0.00000000E+00  0.00000000E+00
  0.00000000E+00  0.00000000E+00  0.00000000E+00
  0.00000000E+00  0.00000000E+00  0.00000000E+00
  0.00000000E+00  0.00000000E+00  0.00000000E+00
  0.00000000E+00  0.00000000E+00  0.00000000E+00
  0.00000000E+00  0.00000000E+00  0.00000000E+00
  0.00000000E+00  0.00000000E+00  0.00000000E+00
  0.00000000E+00  0.00000000E+00  0.00000000E+00
  0.00000000E+00  0.00000000E+00  0.00000000E+00
  0.00000000E+00  0.00000000E+00  0.00000000E+00
  0.00000000E+00  0.00000000E+00  0.00000000E+00
  0.00000000E+00  0.00000000E+00  0.00000000E+00
  0.00000000E+00  0.00000000E+00  0.00000000E+00
  0.00000000E+00  0.00000000E+00  0.00000000E+00
  0.00000000E+00  0.00000000E+00  0.00000000E+00
  0.00000000E+00  0.00000000E+00  0.00000000E+00
