Primitive Cell                          
   1.00000000000000     
     3.1161939346217911    0.0008655452478751   -0.0040859178219941
    -0.0100195224679358    4.7145111953617098   -0.0012083865023563
    -0.8630220988926689   -0.0415776469629517   18.8642381167905100
   Li   C    O    F 
    10     4    12     2
Selective dynamics
Direct
  0.4539432906153493  0.9368515785118134  0.1592679844253766   T   T   T
  0.9459801796695899  0.4402087944659030  0.6843634082155035   T   T   T
  0.3592073174799850  0.4559603728937276  0.9587700820922151   T   T   T
  0.9259319896518718  0.4333165744204521  0.0941272359461323   T   T   T
  0.0490385018902089  0.9545027263744004  0.8697850578034334   T   T   T
  0.9577045163361788  0.1584412579147738  0.4500284095303186   T   T   T
  0.5197293839316188  0.4711096301957198  0.3573639167536200   T   T   T
  0.4770651847180645  0.9405703818793469  0.7280657078143662   T   T   T
  0.9738218990224397  0.4359217856167348  0.2251109956598256   T   T   T
  0.4003754062775400  0.4566896205684614  0.5466187262059705   T   T   T
  0.9430052012372556  0.9297317932218903  0.2977225067239360   T   T   T
  0.4433087926549035  0.4224499736565690  0.8087964302223654   T   T   T
  0.9656180584428213  0.9213976705481599  0.0203987506643131   T   T   T
  0.9782158110666899  0.9222945232483895  0.6027868090226178   T   T   T
  0.8400185297034142  0.0940290375550248  0.3480681925986104   T   T   T
  0.5217559463487191  0.1521816386993109  0.8171615858735350   T   T   T
  0.9344951363150855  0.0240196496366991  0.0844187545270643   T   T   T
  0.9538670240726077  0.0311267058897258  0.6668099673234522   T   T   T
  0.0072735892555471  0.6587884540609821  0.3092786819926587   T   T   T
  0.3337825163672150  0.5770452098286043  0.8607412679379749   T   T   T
  0.8873611650462792  0.6510485682302019  0.0098588048986556   T   T   T
  0.9143594536653197  0.6495052479142700  0.5951123967196423   T   T   T
  0.9758266076216273  0.0250412678117655  0.2330498656218865   T   T   T
  0.4680461685172688  0.5309548219065050  0.7450002973044079   T   T   T
  0.0806069817085344  0.0783717158963171  0.9691451661237735   T   T   T
  0.0726616466390695  0.0781307867003918  0.5506551281342809   T   T   T
  0.4519210013074826  0.5058983675176805  0.1599146568248671   T   T   T
  0.4590073055306618  0.3969961569300580  0.4514528585473840   T   T   T
 
  0.00000000E+00  0.00000000E+00  0.00000000E+00
  0.00000000E+00  0.00000000E+00  0.00000000E+00
  0.00000000E+00  0.00000000E+00  0.00000000E+00
  0.00000000E+00  0.00000000E+00  0.00000000E+00
  0.00000000E+00  0.00000000E+00  0.00000000E+00
  0.00000000E+00  0.00000000E+00  0.00000000E+00
  0.00000000E+00  0.00000000E+00  0.00000000E+00
  0.00000000E+00  0.00000000E+00  0.00000000E+00
  0.00000000E+00  0.00000000E+00  0.00000000E+00
  0.00000000E+00  0.00000000E+00  0.00000000E+00
  0.00000000E+00  0.00000000E+00  0.00000000E+00
  0.00000000E+00  0.00000000E+00  0.00000000E+00
  0.00000000E+00  0.00000000E+00  0.00000000E+00
  0.00000000E+00  0.00000000E+00  0.00000000E+00
  0.00000000E+00  0.00000000E+00  0.00000000E+00
  0.00000000E+00  0.00000000E+00  0.00000000E+00
  0.00000000E+00  0.00000000E+00  0.00000000E+00
  0.00000000E+00  0.00000000E+00  0.00000000E+00
  0.00000000E+00  0.00000000E+00  0.00000000E+00
  0.00000000E+00  0.00000000E+00  0.00000000E+00
  0.00000000E+00  0.00000000E+00  0.00000000E+00
  0.00000000E+00  0.00000000E+00  0.00000000E+00
  0.00000000E+00  0.00000000E+00  0.00000000E+00
  0.00000000E+00  0.00000000E+00  0.00000000E+00
  0.00000000E+00  0.00000000E+00  0.00000000E+00
  0.00000000E+00  0.00000000E+00  0.00000000E+00
  0.00000000E+00  0.00000000E+00  0.00000000E+00
  0.00000000E+00  0.00000000E+00  0.00000000E+00
