Primitive Cell                          
   1.00000000000000     
     5.0699633663900681   -0.0146353070914130   -0.0088127747870364
     0.1309848834996800    5.0668454982606406   -0.0044786636771249
     0.1086106278946923    0.6853479349089872   11.2280237313244307
   Li   C    O    F 
    10     4    12     2
Selective dynamics
Direct
  0.3153315554890384  0.6797885930812910  0.2395698512672624   T   T   T
  0.3162381604749811  0.7605152643639101  0.7302322602640103   T   T   T
  0.3258837026975456  0.4031717997634559  0.5491813304513897   T   T   T
  0.3205407517755461  0.6764676932949172  0.0121028917782127   T   T   T
  0.0671204089241471  0.9436738747275086  0.4878088054366856   T   T   T
  0.0444632766621638  0.1472180772949088  0.9953091216762999   T   T   T
  0.0455055362209293  0.1907641369849458  0.7680889941419409   T   T   T
  0.0567160607545745  0.1224035793635778  0.2598656550425034   T   T   T
  0.7830635181216579  0.6451475312765425  0.8839334838400745   T   T   T
  0.7766926068492523  0.5857983844105661  0.3794713961469398   T   T   T
  0.5199501855935864  0.1596026345316233  0.8816292941638508   T   T   T
  0.5354594170491325  0.0898121648168697  0.3768610982265628   T   T   T
  0.8376508943937324  0.5847847013820129  0.6339745441821023   T   T   T
  0.8422431137125272  0.5433579431604443  0.1308339394625477   T   T   T
  0.4912658887914461  0.3352067696030971  0.3974764321788200   T   T   T
  0.4747128618072196  0.4074871175064061  0.8900380651009030   T   T   T
  0.5990844407479869  0.6157445448792060  0.1311135617788111   T   T   T
  0.5847433079260895  0.6008159096535621  0.6344006385983434   T   T   T
  0.9716319322609834  0.5800622640077648  0.5345705094932853   T   T   T
  0.9682067392429019  0.5144004359811660  0.0298110769590352   T   T   T
  0.7583435818987141  0.0572062544436633  0.8779483600714073   T   T   T
  0.7736811308385754  0.9921875047319944  0.3700521260813545   T   T   T
  0.9704460056167363  0.5721832454792448  0.7342565161075001   T   T   T
  0.9697144381551865  0.4940032421317397  0.2309689302917732   T   T   T
  0.3191925174693111  0.9988394708529427  0.8756875636132406   T   T   T
  0.3358655427420558  0.9363020669533313  0.3635608813338180   T   T   T
  0.1916943709116126  0.0774838143095167  0.6272169297319152   T   T   T
  0.1676847180841818  0.9640233782163037  0.1252808091822502   T   T   T
 
  0.00000000E+00  0.00000000E+00  0.00000000E+00
  0.00000000E+00  0.00000000E+00  0.00000000E+00
  0.00000000E+00  0.00000000E+00  0.00000000E+00
  0.00000000E+00  0.00000000E+00  0.00000000E+00
  0.00000000E+00  0.00000000E+00  0.00000000E+00
  0.00000000E+00  0.00000000E+00  0.00000000E+00
  0.00000000E+00  0.00000000E+00  0.00000000E+00
  0.00000000E+00  0.00000000E+00  0.00000000E+00
  0.00000000E+00  0.00000000E+00  0.00000000E+00
  0.00000000E+00  0.00000000E+00  0.00000000E+00
  0.00000000E+00  0.00000000E+00  0.00000000E+00
  0.00000000E+00  0.00000000E+00  0.00000000E+00
  0.00000000E+00  0.00000000E+00  0.00000000E+00
  0.00000000E+00  0.00000000E+00  0.00000000E+00
  0.00000000E+00  0.00000000E+00  0.00000000E+00
  0.00000000E+00  0.00000000E+00  0.00000000E+00
  0.00000000E+00  0.00000000E+00  0.00000000E+00
  0.00000000E+00  0.00000000E+00  0.00000000E+00
  0.00000000E+00  0.00000000E+00  0.00000000E+00
  0.00000000E+00  0.00000000E+00  0.00000000E+00
  0.00000000E+00  0.00000000E+00  0.00000000E+00
  0.00000000E+00  0.00000000E+00  0.00000000E+00
  0.00000000E+00  0.00000000E+00  0.00000000E+00
  0.00000000E+00  0.00000000E+00  0.00000000E+00
  0.00000000E+00  0.00000000E+00  0.00000000E+00
  0.00000000E+00  0.00000000E+00  0.00000000E+00
  0.00000000E+00  0.00000000E+00  0.00000000E+00
  0.00000000E+00  0.00000000E+00  0.00000000E+00
