Primitive Cell                          
   1.00000000000000     
     4.3980739746437294   -0.1492276441129711    0.8985894519154246
    -0.3568957498071954    7.2863010238201271   -0.1572997702324775
    -0.1302133984843530   -0.5676794895984466   13.4167291571651806
   Li   C    O    F 
    15     6    18     3
Selective dynamics
Direct
  0.9813987357849570  0.4952840492928772  0.7386134795179302   T   T   T
  0.9521911202696955  0.6162677802096113  0.4965300123136132   T   T   T
  0.1034522214701354  0.9709035973791771  0.8593350356120837   T   T   T
  0.6089249944609918  0.3093596840984745  0.0109323507600152   T   T   T
  0.6853387149233967  0.8184308945780003  0.7344126743712280   T   T   T
  0.4444133206971799  0.2560016061730011  0.7119165425170877   T   T   T
  0.4632684330054815  0.5695808514726650  0.8813486022277104   T   T   T
  0.3708637142876512  0.8732156916697207  0.0677556575036320   T   T   T
  0.8885675091080145  0.5799069506967953  0.1292824693682562   T   T   T
  0.0468241045358653  0.2683963373178315  0.5812893351833921   T   T   T
  0.2166540745653620  0.6153618920270461  0.2916577410949373   T   T   T
  0.6237397488804106  0.2291360608612791  0.4409382954475873   T   T   T
  0.8565477792011293  0.8595042796606478  0.2619105022805073   T   T   T
  0.4891310569574259  0.1953381469182034  0.2005639589964900   T   T   T
  0.4958816592099637  0.8895660870203770  0.4881344304400628   T   T   T
  0.4102622246727776  0.6264960727782451  0.6336757561877278   T   T   T
  0.9269827707702163  0.6917524066458824  0.9331873031922271   T   T   T
  0.5924086338865493  0.1508196321547643  0.8580098936465106   T   T   T
  0.9801597629442753  0.1584713360544043  0.1224494998672441   T   T   T
  0.0770750120495975  0.9639329989782084  0.4298905851230117   T   T   T
  0.6559801671698153  0.4709588751948601  0.3280306286930781   T   T   T
  0.1805396706250377  0.7710257944948040  0.9508500369630184   T   T   T
  0.5070269719408884  0.0348129917135580  0.7882593206038706   T   T   T
  0.7279181233739180  0.6086742152787750  0.0010810895316666   T   T   T
  0.4418741027372945  0.5762527017724679  0.7228571000079498   T   T   T
  0.6135187792881780  0.7475647695318344  0.5884996324124856   T   T   T
  0.7762395365096282  0.1104340305756324  0.9142994300783229   T   T   T
  0.8656718089383091  0.6998882740638876  0.8411573431439763   T   T   T
  0.4702660590405685  0.3074310640611557  0.8726528605413435   T   T   T
  0.1770863631904405  0.5619816072443555  0.5963953236943595   T   T   T
  0.2013895788582687  0.0720994315021812  0.4928338512312251   T   T   T
  0.4498640489813042  0.3376142216920996  0.3229142750217875   T   T   T
  0.1939247764367593  0.8058139626811354  0.4045898695556005   T   T   T
  0.7963567429526108  0.0238941016528713  0.1627995416228813   T   T   T
  0.8654127449964264  0.3158114744513369  0.1187368977822487   T   T   T
  0.8461387663196049  0.4648146791572785  0.3883489599791403   T   T   T
  0.8474607763672708  0.0052469074147865  0.3928951672269321   T   T   T
  0.6663699836005463  0.6134695202999296  0.2723899872803202   T   T   T
  0.2641798115347669  0.1381030224133752  0.0877584002285090   T   T   T
  0.0313936846085383  0.2523770429027223  0.7169478686382647   T   T   T
  0.1989395787187007  0.7342160773850139  0.1741565591854837   T   T   T
  0.6422944929774985  0.2788185008735340  0.5766256788239303   T   T   T
 
  0.00000000E+00  0.00000000E+00  0.00000000E+00
  0.00000000E+00  0.00000000E+00  0.00000000E+00
  0.00000000E+00  0.00000000E+00  0.00000000E+00
  0.00000000E+00  0.00000000E+00  0.00000000E+00
  0.00000000E+00  0.00000000E+00  0.00000000E+00
  0.00000000E+00  0.00000000E+00  0.00000000E+00
  0.00000000E+00  0.00000000E+00  0.00000000E+00
  0.00000000E+00  0.00000000E+00  0.00000000E+00
  0.00000000E+00  0.00000000E+00  0.00000000E+00
  0.00000000E+00  0.00000000E+00  0.00000000E+00
  0.00000000E+00  0.00000000E+00  0.00000000E+00
  0.00000000E+00  0.00000000E+00  0.00000000E+00
  0.00000000E+00  0.00000000E+00  0.00000000E+00
  0.00000000E+00  0.00000000E+00  0.00000000E+00
  0.00000000E+00  0.00000000E+00  0.00000000E+00
  0.00000000E+00  0.00000000E+00  0.00000000E+00
  0.00000000E+00  0.00000000E+00  0.00000000E+00
  0.00000000E+00  0.00000000E+00  0.00000000E+00
  0.00000000E+00  0.00000000E+00  0.00000000E+00
  0.00000000E+00  0.00000000E+00  0.00000000E+00
  0.00000000E+00  0.00000000E+00  0.00000000E+00
  0.00000000E+00  0.00000000E+00  0.00000000E+00
  0.00000000E+00  0.00000000E+00  0.00000000E+00
  0.00000000E+00  0.00000000E+00  0.00000000E+00
  0.00000000E+00  0.00000000E+00  0.00000000E+00
  0.00000000E+00  0.00000000E+00  0.00000000E+00
  0.00000000E+00  0.00000000E+00  0.00000000E+00
  0.00000000E+00  0.00000000E+00  0.00000000E+00
  0.00000000E+00  0.00000000E+00  0.00000000E+00
  0.00000000E+00  0.00000000E+00  0.00000000E+00
  0.00000000E+00  0.00000000E+00  0.00000000E+00
  0.00000000E+00  0.00000000E+00  0.00000000E+00
  0.00000000E+00  0.00000000E+00  0.00000000E+00
  0.00000000E+00  0.00000000E+00  0.00000000E+00
  0.00000000E+00  0.00000000E+00  0.00000000E+00
  0.00000000E+00  0.00000000E+00  0.00000000E+00
  0.00000000E+00  0.00000000E+00  0.00000000E+00
  0.00000000E+00  0.00000000E+00  0.00000000E+00
  0.00000000E+00  0.00000000E+00  0.00000000E+00
  0.00000000E+00  0.00000000E+00  0.00000000E+00
  0.00000000E+00  0.00000000E+00  0.00000000E+00
  0.00000000E+00  0.00000000E+00  0.00000000E+00
