Primitive Cell                          
   1.00000000000000     
     5.5562470062616534   -0.0000000000017134    0.0000000000000000
     0.0000000000017134    5.5562470062616534    0.0000000000000000
     0.0000000000000000    0.0000000000000000    4.8428238173547209
   Li   C    O    F 
     5     2     6     1
Selective dynamics
Direct
  0.5000000000000000  0.5000000000000000  0.0000000000000000   T   T   T
  0.0632279104434019  0.7429051717165791  0.7334739250868338   T   T   T
  0.9367720895565981  0.2570948282834209  0.7334739250868338   T   T   T
  0.7429051717165791  0.9367720895565981  0.2665260749131662   T   T   T
  0.2570948282834209  0.0632279104434019  0.2665260749131662   T   T   T
  0.5000000000000000  0.0000000000000000  0.7955821991851906   T   T   T
  0.0000000000000000  0.5000000000000000  0.2044178008148094   T   T   T
  0.5000000000000000  0.0000000000000000  0.5320198244513321   T   T   T
  0.0000000000000000  0.5000000000000000  0.4679801755486679   T   T   T
  0.3655255646802757  0.8482667927648038  0.9351211497804144   T   T   T
  0.6344744353197243  0.1517332072351891  0.9351211497804144   T   T   T
  0.8482667927648038  0.6344744353197243  0.0648788502195856   T   T   T
  0.1517332072351891  0.3655255646802757  0.0648788502195856   T   T   T
  0.0000000000000000  0.0000000000000000  0.5000000000000000   T   T   T
 
  0.00000000E+00  0.00000000E+00  0.00000000E+00
  0.00000000E+00  0.00000000E+00  0.00000000E+00
  0.00000000E+00  0.00000000E+00  0.00000000E+00
  0.00000000E+00  0.00000000E+00  0.00000000E+00
  0.00000000E+00  0.00000000E+00  0.00000000E+00
  0.00000000E+00  0.00000000E+00  0.00000000E+00
  0.00000000E+00  0.00000000E+00  0.00000000E+00
  0.00000000E+00  0.00000000E+00  0.00000000E+00
  0.00000000E+00  0.00000000E+00  0.00000000E+00
  0.00000000E+00  0.00000000E+00  0.00000000E+00
  0.00000000E+00  0.00000000E+00  0.00000000E+00
  0.00000000E+00  0.00000000E+00  0.00000000E+00
  0.00000000E+00  0.00000000E+00  0.00000000E+00
  0.00000000E+00  0.00000000E+00  0.00000000E+00
