Primitive Cell                          
   1.00000000000000     
     4.8951886067251511   -0.1610918065991610   -0.0514847848217257
     1.3618590821976975    6.5771584740550422   -1.3964436144116303
     1.3939603603847415    0.3843856565774917   17.5460961690275816
   Li   C    O    F 
    20     8    24     4
Selective dynamics
Direct
  0.4188913384567172  0.3591148485007238  0.9847885482050316   T   T   T
  0.9523820770760807  0.8300461323378698  0.4750459791520214   T   T   T
  0.5193861880006665  0.1594741340974295  0.6823216815832325   T   T   T
  0.9742312835889848  0.6632131336900926  0.1943687778833691   T   T   T
  0.9226962545009130  0.1359820009444448  0.0196533237066632   T   T   T
  0.4434356341569483  0.6370183131923710  0.5247555638927537   T   T   T
  0.0172582465802975  0.0666880620842036  0.7601229402609206   T   T   T
  0.5094168364067144  0.4372046857182710  0.2172192421793184   T   T   T
  0.5055351052939656  0.8597084905057031  0.9721220696167734   T   T   T
  0.0187490219210389  0.3553741774685761  0.4708573841872195   T   T   T
  0.9507196938066329  0.4350715867985073  0.7263244899635382   T   T   T
  0.4408825357830750  0.9251382091045457  0.2344964219479877   T   T   T
  0.0571832500958749  0.7808997053622875  0.8753266458488227   T   T   T
  0.4891117696473373  0.4450591607904784  0.3853406768397889   T   T   T
  0.4373232836804775  0.3490570904953287  0.8228504377797776   T   T   T
  0.9009098297342319  0.0249040817649373  0.3410507500159596   T   T   T
  0.4036073295976124  0.6276888691788756  0.6839718240974832   T   T   T
  0.9030574345527640  0.1304740273357154  0.1842898072205585   T   T   T
  0.5582361953954162  0.1468453103343492  0.5106884125746589   T   T   T
  0.0232319064513149  0.6606978585715595  0.0187447511955412   T   T   T
  0.9236182852039079  0.3673175186971633  0.8930602837347550   T   T   T
  0.4335273390883003  0.8675180789966532  0.3946357534624809   T   T   T
  0.5555095015168732  0.9247232759774064  0.8166370955421272   T   T   T
  0.0168691035163633  0.3922212674056311  0.3054928659653555   T   T   T
  0.0625763459165469  0.1282912978758546  0.5972572354977288   T   T   T
  0.5195293739540077  0.6496444798002088  0.1022074251594205   T   T   T
  0.9270902902205975  0.6444101612875954  0.6018198161507655   T   T   T
  0.4140664258296027  0.1412791750404807  0.1021234886656472   T   T   T
  0.8355822545640876  0.6353105803309091  0.5330259563594808   T   T   T
  0.3164944602968873  0.1418020777922635  0.0344552699733853   T   T   T
  0.9140143986323253  0.1562078600667363  0.6638871261155259   T   T   T
  0.3691882471381192  0.6528248099002312  0.1666097838871465   T   T   T
  0.4124352549752217  0.0485529535950704  0.7778115411952840   T   T   T
  0.8755503987016979  0.4346458642804265  0.2481228091423375   T   T   T
  0.7958650512026750  0.2935543433140779  0.9441156790654617   T   T   T
  0.3403717652710370  0.7414221142290955  0.4329831607234311   T   T   T
  0.7817779243245084  0.5963516792096826  0.6572720417877065   T   T   T
  0.2875728401266926  0.0736163876756351  0.1552972308565828   T   T   T
  0.9418265252623144  0.1265058331923541  0.5331512846370643   T   T   T
  0.4056867200055549  0.6482112196127403  0.0370554555671205   T   T   T
  0.4252094862869527  0.8371590682666792  0.8639698665559763   T   T   T
  0.8909339937200755  0.3376784931129748  0.3645691546049434   T   T   T
  0.8379174151556583  0.3620793440132033  0.8245726621868741   T   T   T
  0.3001365470598500  0.9297494104233266  0.3402638574608332   T   T   T
  0.1632421357413918  0.6989018819644031  0.6119127701258407   T   T   T
  0.6417046272749616  0.2114674089141531  0.1139765520055107   T   T   T
  0.3289738776719702  0.1059963907339352  0.5947069950764643   T   T   T
  0.7815459603127906  0.6476975639220655  0.1030823496031132   T   T   T
  0.8230501030723190  0.8925324815380407  0.8069843945845392   T   T   T
  0.2765278363077641  0.3996262677675730  0.3023488716299383   T   T   T
  0.1414133484270437  0.4500747465304755  0.9098007115012834   T   T   T
  0.6616942687802805  0.9308317641670172  0.4132447787060514   T   T   T
  0.8859183858689761  0.8735236403621229  0.9749114074963714   T   T   T
  0.3934304519214393  0.3726923192824074  0.4778695323849718   T   T   T
  0.3325116570584399  0.4296851889759736  0.7335012975912605   T   T   T
  0.8210882826710559  0.9405140691151743  0.2406537802854984   T   T   T
 
  0.00000000E+00  0.00000000E+00  0.00000000E+00
  0.00000000E+00  0.00000000E+00  0.00000000E+00
  0.00000000E+00  0.00000000E+00  0.00000000E+00
  0.00000000E+00  0.00000000E+00  0.00000000E+00
  0.00000000E+00  0.00000000E+00  0.00000000E+00
  0.00000000E+00  0.00000000E+00  0.00000000E+00
  0.00000000E+00  0.00000000E+00  0.00000000E+00
  0.00000000E+00  0.00000000E+00  0.00000000E+00
  0.00000000E+00  0.00000000E+00  0.00000000E+00
  0.00000000E+00  0.00000000E+00  0.00000000E+00
  0.00000000E+00  0.00000000E+00  0.00000000E+00
  0.00000000E+00  0.00000000E+00  0.00000000E+00
  0.00000000E+00  0.00000000E+00  0.00000000E+00
  0.00000000E+00  0.00000000E+00  0.00000000E+00
  0.00000000E+00  0.00000000E+00  0.00000000E+00
  0.00000000E+00  0.00000000E+00  0.00000000E+00
  0.00000000E+00  0.00000000E+00  0.00000000E+00
  0.00000000E+00  0.00000000E+00  0.00000000E+00
  0.00000000E+00  0.00000000E+00  0.00000000E+00
  0.00000000E+00  0.00000000E+00  0.00000000E+00
  0.00000000E+00  0.00000000E+00  0.00000000E+00
  0.00000000E+00  0.00000000E+00  0.00000000E+00
  0.00000000E+00  0.00000000E+00  0.00000000E+00
  0.00000000E+00  0.00000000E+00  0.00000000E+00
  0.00000000E+00  0.00000000E+00  0.00000000E+00
  0.00000000E+00  0.00000000E+00  0.00000000E+00
  0.00000000E+00  0.00000000E+00  0.00000000E+00
  0.00000000E+00  0.00000000E+00  0.00000000E+00
  0.00000000E+00  0.00000000E+00  0.00000000E+00
  0.00000000E+00  0.00000000E+00  0.00000000E+00
  0.00000000E+00  0.00000000E+00  0.00000000E+00
  0.00000000E+00  0.00000000E+00  0.00000000E+00
  0.00000000E+00  0.00000000E+00  0.00000000E+00
  0.00000000E+00  0.00000000E+00  0.00000000E+00
  0.00000000E+00  0.00000000E+00  0.00000000E+00
  0.00000000E+00  0.00000000E+00  0.00000000E+00
  0.00000000E+00  0.00000000E+00  0.00000000E+00
  0.00000000E+00  0.00000000E+00  0.00000000E+00
  0.00000000E+00  0.00000000E+00  0.00000000E+00
  0.00000000E+00  0.00000000E+00  0.00000000E+00
  0.00000000E+00  0.00000000E+00  0.00000000E+00
  0.00000000E+00  0.00000000E+00  0.00000000E+00
  0.00000000E+00  0.00000000E+00  0.00000000E+00
  0.00000000E+00  0.00000000E+00  0.00000000E+00
  0.00000000E+00  0.00000000E+00  0.00000000E+00
  0.00000000E+00  0.00000000E+00  0.00000000E+00
  0.00000000E+00  0.00000000E+00  0.00000000E+00
  0.00000000E+00  0.00000000E+00  0.00000000E+00
  0.00000000E+00  0.00000000E+00  0.00000000E+00
  0.00000000E+00  0.00000000E+00  0.00000000E+00
  0.00000000E+00  0.00000000E+00  0.00000000E+00
  0.00000000E+00  0.00000000E+00  0.00000000E+00
  0.00000000E+00  0.00000000E+00  0.00000000E+00
  0.00000000E+00  0.00000000E+00  0.00000000E+00
  0.00000000E+00  0.00000000E+00  0.00000000E+00
  0.00000000E+00  0.00000000E+00  0.00000000E+00
