Primitive Cell                          
   1.00000000000000     
     4.8536629676274803   -0.0243445260953264    0.0110415413104231
    -0.0382241010943356    8.2117352541082944    0.0004926475720347
     0.0361823072206662    0.0033528162597082   16.0154825969470238
   Li   C    O    F 
    20     8    24     4
Selective dynamics
Direct
  0.9077266653586101  0.1698356719610442  0.9386010347825082   T   T   T
  0.4014660941009950  0.4167091178542832  0.9947329081979154   T   T   T
  0.9430391802533513  0.1076097977581357  0.4793814410526759   T   T   T
  0.4471195930670049  0.4984921151671007  0.6459814170375582   T   T   T
  0.0187975347989116  0.9775237014520294  0.1191036216935695   T   T   T
  0.5407748417494191  0.4813308355017763  0.1393814941744393   T   T   T
  0.0710217185916567  0.0792977104216239  0.3171799448540188   T   T   T
  0.4601898530316217  0.8197742043938716  0.5376977493534464   T   T   T
  0.9210175245163496  0.0457543320025756  0.7913536073937760   T   T   T
  0.4488855050360907  0.6384482043320621  0.8571740137161398   T   T   T
  0.5866620783785225  0.5780308387918673  0.4356879517873519   T   T   T
  0.8925381387844111  0.6460381169555659  0.7468882877444408   T   T   T
  0.5238885446374187  0.8019555385406667  0.0396693049138936   T   T   T
  0.0299636676598742  0.2776831782568576  0.1316012939659825   T   T   T
  0.0691001336484791  0.7592148733444540  0.4218001197908025   T   T   T
  0.5866808579488484  0.2520519805157270  0.3568461195462498   T   T   T
  0.9459107695388332  0.8120906455362006  0.9320898971618305   T   T   T
  0.3637682462368226  0.3044729323716702  0.8125781795967175   T   T   T
  0.9525558991754315  0.9549134073922935  0.6194518711585536   T   T   T
  0.9607127262946159  0.3034100334051075  0.6469481577803858   T   T   T
  0.4278191225098700  0.9871275352207688  0.8902964466076335   T   T   T
  0.9419223766247998  0.4907523112711363  0.9031143185579122   T   T   T
  0.9324957310200813  0.6423363044900009  0.5836741703154016   T   T   T
  0.4554512383116412  0.1514895393705849  0.5850352641581789   T   T   T
  0.0445823706481995  0.6268473020367444  0.0889996425568015   T   T   T
  0.5382744861579645  0.1362363976283677  0.0785852978617292   T   T   T
  0.5821141813146198  0.9247135759166526  0.3818288507961631   T   T   T
  0.0874539534906032  0.4125442111289926  0.3928300280250515   T   T   T
  0.4460186583536787  0.0396724586853037  0.3472188652068103   T   T   T
  0.9493060011510988  0.5442694103121953  0.3996020561596094   T   T   T
  0.4569416117959920  0.7969492456447226  0.4122721389497032   T   T   T
  0.9585251577286253  0.2713746690295099  0.3900042070114110   T   T   T
  0.8494289980641422  0.9369947005835340  0.3889669850364255   T   T   T
  0.3535178998017195  0.4166367939684657  0.3885507277325436   T   T   T
  0.9165482846613803  0.7554334944830878  0.0624210240088648   T   T   T
  0.4196375174240691  0.2763894677633744  0.0941087383269472   T   T   T
  0.3080255522326034  0.6130711003994086  0.0722568418580336   T   T   T
  0.7942414912285237  0.1371227198194091  0.0531571019740099   T   T   T
  0.9208612848582480  0.5132219150094030  0.1307767237796126   T   T   T
  0.4036681647899228  0.0026701994686502  0.0869036795525567   T   T   T
  0.0460246535694235  0.5410541943692972  0.6351482884513163   T   T   T
  0.6147330026246621  0.0337297446759901  0.5584623038043340   T   T   T
  0.0752527891072427  0.7616495559249347  0.5509771319212441   T   T   T
  0.5627934628375337  0.2776555292702569  0.6192733857259641   T   T   T
  0.6714181508235901  0.6290461186692183  0.5667009501653874   T   T   T
  0.1880566980096717  0.1374115175427060  0.5757330652936287   T   T   T
  0.5461584400856773  0.8526936260064721  0.9147031452756127   T   T   T
  0.1072721075208179  0.3708869887896769  0.9188354064865319   T   T   T
  0.1607822228586231  0.9969381915009946  0.8935590224135569   T   T   T
  0.6867593373752984  0.4840452242751144  0.9244908886354890   T   T   T
  0.5766370021308311  0.1086958484792066  0.8635596848924069   T   T   T
  0.0400741088587646  0.6206306560327857  0.8654729477437257   T   T   T
  0.9844890760315903  0.1185593197304098  0.2105319444039116   T   T   T
  0.0666471448358577  0.2352721183642325  0.7505741786296917   T   T   T
  0.8960553662125924  0.8685568084701352  0.7230967388367815   T   T   T
  0.5399379059065090  0.5350042735068620  0.7580426153529520   T   T   T
 
  0.00000000E+00  0.00000000E+00  0.00000000E+00
  0.00000000E+00  0.00000000E+00  0.00000000E+00
  0.00000000E+00  0.00000000E+00  0.00000000E+00
  0.00000000E+00  0.00000000E+00  0.00000000E+00
  0.00000000E+00  0.00000000E+00  0.00000000E+00
  0.00000000E+00  0.00000000E+00  0.00000000E+00
  0.00000000E+00  0.00000000E+00  0.00000000E+00
  0.00000000E+00  0.00000000E+00  0.00000000E+00
  0.00000000E+00  0.00000000E+00  0.00000000E+00
  0.00000000E+00  0.00000000E+00  0.00000000E+00
  0.00000000E+00  0.00000000E+00  0.00000000E+00
  0.00000000E+00  0.00000000E+00  0.00000000E+00
  0.00000000E+00  0.00000000E+00  0.00000000E+00
  0.00000000E+00  0.00000000E+00  0.00000000E+00
  0.00000000E+00  0.00000000E+00  0.00000000E+00
  0.00000000E+00  0.00000000E+00  0.00000000E+00
  0.00000000E+00  0.00000000E+00  0.00000000E+00
  0.00000000E+00  0.00000000E+00  0.00000000E+00
  0.00000000E+00  0.00000000E+00  0.00000000E+00
  0.00000000E+00  0.00000000E+00  0.00000000E+00
  0.00000000E+00  0.00000000E+00  0.00000000E+00
  0.00000000E+00  0.00000000E+00  0.00000000E+00
  0.00000000E+00  0.00000000E+00  0.00000000E+00
  0.00000000E+00  0.00000000E+00  0.00000000E+00
  0.00000000E+00  0.00000000E+00  0.00000000E+00
  0.00000000E+00  0.00000000E+00  0.00000000E+00
  0.00000000E+00  0.00000000E+00  0.00000000E+00
  0.00000000E+00  0.00000000E+00  0.00000000E+00
  0.00000000E+00  0.00000000E+00  0.00000000E+00
  0.00000000E+00  0.00000000E+00  0.00000000E+00
  0.00000000E+00  0.00000000E+00  0.00000000E+00
  0.00000000E+00  0.00000000E+00  0.00000000E+00
  0.00000000E+00  0.00000000E+00  0.00000000E+00
  0.00000000E+00  0.00000000E+00  0.00000000E+00
  0.00000000E+00  0.00000000E+00  0.00000000E+00
  0.00000000E+00  0.00000000E+00  0.00000000E+00
  0.00000000E+00  0.00000000E+00  0.00000000E+00
  0.00000000E+00  0.00000000E+00  0.00000000E+00
  0.00000000E+00  0.00000000E+00  0.00000000E+00
  0.00000000E+00  0.00000000E+00  0.00000000E+00
  0.00000000E+00  0.00000000E+00  0.00000000E+00
  0.00000000E+00  0.00000000E+00  0.00000000E+00
  0.00000000E+00  0.00000000E+00  0.00000000E+00
  0.00000000E+00  0.00000000E+00  0.00000000E+00
  0.00000000E+00  0.00000000E+00  0.00000000E+00
  0.00000000E+00  0.00000000E+00  0.00000000E+00
  0.00000000E+00  0.00000000E+00  0.00000000E+00
  0.00000000E+00  0.00000000E+00  0.00000000E+00
  0.00000000E+00  0.00000000E+00  0.00000000E+00
  0.00000000E+00  0.00000000E+00  0.00000000E+00
  0.00000000E+00  0.00000000E+00  0.00000000E+00
  0.00000000E+00  0.00000000E+00  0.00000000E+00
  0.00000000E+00  0.00000000E+00  0.00000000E+00
  0.00000000E+00  0.00000000E+00  0.00000000E+00
  0.00000000E+00  0.00000000E+00  0.00000000E+00
  0.00000000E+00  0.00000000E+00  0.00000000E+00
