Primitive Cell                          
   1.00000000000000     
     5.0398959366438065    0.0120328398399787    0.0011988821993223
     1.6233949567383219    8.2227472092818523    0.0090635911541157
     2.5001896269953674   -0.0469638336713955    9.9340132545268656
   Li   C    O    F 
    15     6    18     3
Selective dynamics
Direct
  0.8295103920554610  0.7218458838837805  0.3269603304652975   T   T   T
  0.1044921637036964  0.8205785185102172  0.7532308738531128   T   T   T
  0.1047221341197115  0.5095180383027866  0.5901871042827409   T   T   T
  0.5004093501368843  0.8616472651299958  0.9120283548334740   T   T   T
  0.6160116833962732  0.0487498776053314  0.1813632755770271   T   T   T
  0.9442495532838677  0.5073886085770312  0.9126025714533839   T   T   T
  0.5080310756707149  0.5237212588411637  0.7513425206065065   T   T   T
  0.4044420900755412  0.7188192465902645  0.1796298135705072   T   T   T
  0.8546141680740718  0.3870205678470739  0.1819520507055969   T   T   T
  0.7074749628640404  0.1780762629431365  0.9073069835877661   T   T   T
  0.3092896085328860  0.1996554203078276  0.7500556813922188   T   T   T
  0.2841948754622976  0.3884347523357192  0.3201784933964333   T   T   T
  0.6575464147967907  0.8675292832701658  0.5960273878022520   T   T   T
  0.8663500786476419  0.1801617964761562  0.5918629530207440   T   T   T
  0.0488238032768109  0.0476732804836999  0.3185117520575460   T   T   T
  0.9501980725780399  0.7823187098544651  0.0415385816454545   T   T   T
  0.2388235163976447  0.7843993545077907  0.4645672898411206   T   T   T
  0.4447997195652462  0.1199301749776041  0.4634256045353098   T   T   T
  0.1582787475613898  0.1176164129165329  0.0355352620782483   T   T   T
  0.4080480541766747  0.4489979336684726  0.0394592476524593   T   T   T
  0.6953196327195954  0.4511969341109534  0.4627351321121722   T   T   T
  0.7535254252950452  0.7996243086265338  0.1535086368352907   T   T   T
  0.8841346430250425  0.4725400581466630  0.3531494838271172   T   T   T
  0.4911007408689940  0.7891955853617389  0.4635790957809220   T   T   T
  0.0570569723452579  0.7642690679233581  0.5771851803836157   T   T   T
  0.4460848354824023  0.4490032689620662  0.4560809468101894   T   T   T
  0.2012675291439194  0.7864518869737083  0.0434423389273277   T   T   T
  0.0891968930394640  0.1239745852960112  0.9215569837121009   T   T   T
  0.1556763556276479  0.7999481041765364  0.3520634536046714   T   T   T
  0.1524919761826595  0.4460432512667509  0.0460513531437385   T   T   T
  0.2623940107912190  0.1268451622075162  0.5774295610079321   T   T   T
  0.3623384256363451  0.1414153882886779  0.3507428960223962   T   T   T
  0.4874420408974842  0.4707508951867538  0.1492001105779579   T   T   T
  0.7091149611652128  0.0897172710496861  0.4601202153327861   T   T   T
  0.7688797590493053  0.4309411651800588  0.5772976896246291   T   T   T
  0.5956167531268832  0.4289971009519320  0.9247520392429180   T   T   T
  0.9642908045585941  0.1398895814368615  0.1483855554293640   T   T   T
  0.8822969086046797  0.7615939272674481  0.9284026656846862   T   T   T
  0.4198726764579845  0.0866693306195003  0.0383377391083712   T   T   T
  0.4781302892160681  0.7641645942999133  0.7529436093653388   T   T   T
  0.1856248152443172  0.4402505077458443  0.7510624186076029   T   T   T
  0.6835931479900879  0.0941842445606014  0.7486868691782078   T   T   T
 
  0.00000000E+00  0.00000000E+00  0.00000000E+00
  0.00000000E+00  0.00000000E+00  0.00000000E+00
  0.00000000E+00  0.00000000E+00  0.00000000E+00
  0.00000000E+00  0.00000000E+00  0.00000000E+00
  0.00000000E+00  0.00000000E+00  0.00000000E+00
  0.00000000E+00  0.00000000E+00  0.00000000E+00
  0.00000000E+00  0.00000000E+00  0.00000000E+00
  0.00000000E+00  0.00000000E+00  0.00000000E+00
  0.00000000E+00  0.00000000E+00  0.00000000E+00
  0.00000000E+00  0.00000000E+00  0.00000000E+00
  0.00000000E+00  0.00000000E+00  0.00000000E+00
  0.00000000E+00  0.00000000E+00  0.00000000E+00
  0.00000000E+00  0.00000000E+00  0.00000000E+00
  0.00000000E+00  0.00000000E+00  0.00000000E+00
  0.00000000E+00  0.00000000E+00  0.00000000E+00
  0.00000000E+00  0.00000000E+00  0.00000000E+00
  0.00000000E+00  0.00000000E+00  0.00000000E+00
  0.00000000E+00  0.00000000E+00  0.00000000E+00
  0.00000000E+00  0.00000000E+00  0.00000000E+00
  0.00000000E+00  0.00000000E+00  0.00000000E+00
  0.00000000E+00  0.00000000E+00  0.00000000E+00
  0.00000000E+00  0.00000000E+00  0.00000000E+00
  0.00000000E+00  0.00000000E+00  0.00000000E+00
  0.00000000E+00  0.00000000E+00  0.00000000E+00
  0.00000000E+00  0.00000000E+00  0.00000000E+00
  0.00000000E+00  0.00000000E+00  0.00000000E+00
  0.00000000E+00  0.00000000E+00  0.00000000E+00
  0.00000000E+00  0.00000000E+00  0.00000000E+00
  0.00000000E+00  0.00000000E+00  0.00000000E+00
  0.00000000E+00  0.00000000E+00  0.00000000E+00
  0.00000000E+00  0.00000000E+00  0.00000000E+00
  0.00000000E+00  0.00000000E+00  0.00000000E+00
  0.00000000E+00  0.00000000E+00  0.00000000E+00
  0.00000000E+00  0.00000000E+00  0.00000000E+00
  0.00000000E+00  0.00000000E+00  0.00000000E+00
  0.00000000E+00  0.00000000E+00  0.00000000E+00
  0.00000000E+00  0.00000000E+00  0.00000000E+00
  0.00000000E+00  0.00000000E+00  0.00000000E+00
  0.00000000E+00  0.00000000E+00  0.00000000E+00
  0.00000000E+00  0.00000000E+00  0.00000000E+00
  0.00000000E+00  0.00000000E+00  0.00000000E+00
  0.00000000E+00  0.00000000E+00  0.00000000E+00
