Primitive Cell                          
   1.00000000000000     
     7.5192465739077887    1.3326598003566974   -0.2447709388704226
     3.1505175198083917    3.4539674227163126    0.5197253559170367
     2.1857483976309142    3.2534032186372324   19.3312859053363830
   Li   C    O    F 
    15     6    18     3
Selective dynamics
Direct
  0.5629215300666317  0.2567896853811078  0.6024245520822831   T   T   T
  0.0206064396949657  0.8564370800326486  0.5225505411072930   T   T   T
  0.7647750533790685  0.7193485210000645  0.9256486860192084   T   T   T
  0.4555457638742055  0.4838773184701637  0.0666804095871782   T   T   T
  0.0004841382181553  0.1353459126642562  0.8297402673383871   T   T   T
  0.2577914004220148  0.4280133671754101  0.6930627699517018   T   T   T
  0.5112080516269160  0.4950411456134916  0.7948511140893331   T   T   T
  0.9286829839796766  0.1421726775375021  0.0949662084751708   T   T   T
  0.2390092147107623  0.3869770064252265  0.9573405719397599   T   T   T
  0.5344336773867226  0.9126844442717612  0.5199554736577809   T   T   T
  0.5705413466718383  0.8865830735215425  0.3637269101438818   T   T   T
  0.0633946945021151  0.9124513760858974  0.3557959800846078   T   T   T
  0.7223408927334916  0.5335991596137646  0.1944331387783933   T   T   T
  0.3887428667161430  0.4344121723997887  0.2057547356013671   T   T   T
  0.0964958082052476  0.2010369622610355  0.6139446866899760   T   T   T
  0.7256760660894557  0.3041157090331836  0.6926573054391127   T   T   T
  0.6974107090411863  0.2360887557269820  0.9651705782607607   T   T   T
  0.2339056090195797  0.2672513754121297  0.8406502748714857   T   T   T
  0.1760884140937620  0.2654234660991577  0.1111735760930586   T   T   T
  0.0777091928099622  0.3135726185307206  0.4730344446796053   T   T   T
  0.4659359618728729  0.6249607313206624  0.3167066557859783   T   T   T
  0.7879519682791880  0.1423396082843382  0.9056338639784016   T   T   T
  0.2314449104272711  0.1885571955935958  0.7835279606022070   T   T   T
  0.7805321499878204  0.3132097888997691  0.0018283943218265   T   T   T
  0.5154547426681546  0.3948112856226658  0.6988233744848884   T   T   T
  0.8070710877166221  0.3352714067418248  0.7403546323987271   T   T   T
  0.1040625197907232  0.2724279727381855  0.8891738535936327   T   T   T
  0.5319399574918506  0.2401515985404927  0.9886308835492699   T   T   T
  0.3663311157250533  0.3266895423369007  0.8520626367370525   T   T   T
  0.8526519333602778  0.1733940467576858  0.6383815667680395   T   T   T
  0.2626321755123229  0.9145771216424592  0.5306954068308301   T   T   T
  0.3885284517963541  0.4923039148020791  0.2966718936779102   T   T   T
  0.8492204331438558  0.4822738329012992  0.4496525921415468   T   T   T
  0.0527098784552322  0.2310473975951979  0.1567171722245959   T   T   T
  0.2977116321736233  0.3357745357376629  0.1280176509222315   T   T   T
  0.3369059417977383  0.8618682606564931  0.3611485247020454   T   T   T
  0.1361060088590520  0.5121366835203460  0.4449043271515407   T   T   T
  0.6678596241643788  0.5333377400679140  0.2925367155735970   T   T   T
  0.1822341393981333  0.2051957058636873  0.0507493204642628   T   T   T
  0.3097323172518145  0.2635759580418053  0.6123667957825276   T   T   T
  0.6748423286021961  0.2614554728613996  0.1597485912156955   T   T   T
  0.7747024552543991  0.8705701918430364  0.5493463933001692   T   T   T
 
  0.00000000E+00  0.00000000E+00  0.00000000E+00
  0.00000000E+00  0.00000000E+00  0.00000000E+00
  0.00000000E+00  0.00000000E+00  0.00000000E+00
  0.00000000E+00  0.00000000E+00  0.00000000E+00
  0.00000000E+00  0.00000000E+00  0.00000000E+00
  0.00000000E+00  0.00000000E+00  0.00000000E+00
  0.00000000E+00  0.00000000E+00  0.00000000E+00
  0.00000000E+00  0.00000000E+00  0.00000000E+00
  0.00000000E+00  0.00000000E+00  0.00000000E+00
  0.00000000E+00  0.00000000E+00  0.00000000E+00
  0.00000000E+00  0.00000000E+00  0.00000000E+00
  0.00000000E+00  0.00000000E+00  0.00000000E+00
  0.00000000E+00  0.00000000E+00  0.00000000E+00
  0.00000000E+00  0.00000000E+00  0.00000000E+00
  0.00000000E+00  0.00000000E+00  0.00000000E+00
  0.00000000E+00  0.00000000E+00  0.00000000E+00
  0.00000000E+00  0.00000000E+00  0.00000000E+00
  0.00000000E+00  0.00000000E+00  0.00000000E+00
  0.00000000E+00  0.00000000E+00  0.00000000E+00
  0.00000000E+00  0.00000000E+00  0.00000000E+00
  0.00000000E+00  0.00000000E+00  0.00000000E+00
  0.00000000E+00  0.00000000E+00  0.00000000E+00
  0.00000000E+00  0.00000000E+00  0.00000000E+00
  0.00000000E+00  0.00000000E+00  0.00000000E+00
  0.00000000E+00  0.00000000E+00  0.00000000E+00
  0.00000000E+00  0.00000000E+00  0.00000000E+00
  0.00000000E+00  0.00000000E+00  0.00000000E+00
  0.00000000E+00  0.00000000E+00  0.00000000E+00
  0.00000000E+00  0.00000000E+00  0.00000000E+00
  0.00000000E+00  0.00000000E+00  0.00000000E+00
  0.00000000E+00  0.00000000E+00  0.00000000E+00
  0.00000000E+00  0.00000000E+00  0.00000000E+00
  0.00000000E+00  0.00000000E+00  0.00000000E+00
  0.00000000E+00  0.00000000E+00  0.00000000E+00
  0.00000000E+00  0.00000000E+00  0.00000000E+00
  0.00000000E+00  0.00000000E+00  0.00000000E+00
  0.00000000E+00  0.00000000E+00  0.00000000E+00
  0.00000000E+00  0.00000000E+00  0.00000000E+00
  0.00000000E+00  0.00000000E+00  0.00000000E+00
  0.00000000E+00  0.00000000E+00  0.00000000E+00
  0.00000000E+00  0.00000000E+00  0.00000000E+00
  0.00000000E+00  0.00000000E+00  0.00000000E+00
