Primitive Cell                          
   1.00000000000000     
     4.9316153418494233   -0.0046027077657047   -0.0012792029119978
     0.0066754448169664    7.5342520566797226    0.3870087896344093
     0.0040676987696477    1.7652965324845686    9.0573618097808168
   Li   C    O    F 
    10     4    12     2
Selective dynamics
Direct
  0.5983988762542509  0.2317527391298526  0.8615530597074468   T   T   T
  0.0983692631311754  0.2884769314126601  0.0326403690106361   T   T   T
  0.5467027541134186  0.2922572517744797  0.5266859018426047   T   T   T
  0.0851938929879665  0.7512026085137293  0.7032211938346080   T   T   T
  0.0883197669914821  0.3640494026656356  0.6746843456791893   T   T   T
  0.5962116657691041  0.8279817341855278  0.8505663283360363   T   T   T
  0.5883009206628529  0.1562153007802181  0.2195000168162764   T   T   T
  0.0962002500914352  0.6922473839969712  0.0436527212793152   T   T   T
  0.0466864081295313  0.2280273159584212  0.3674922580955524   T   T   T
  0.5851569009953366  0.7690073556974184  0.1909995751547626   T   T   T
  0.0763213969356329  0.9533029671999742  0.2183460593671711   T   T   T
  0.5816208187084797  0.4905421761048530  0.0391471320157137   T   T   T
  0.0816110259726557  0.0296864813450313  0.8550612502123087   T   T   T
  0.5763524600284242  0.5669108923440760  0.6758610943375274   T   T   T
  0.2115986195328361  0.1752224737725356  0.8682886802564695   T   T   T
  0.7119641394953220  0.7016966213539177  0.7022246709048687   T   T   T
  0.8204719612038289  0.0315080279163737  0.8495587470249077   T   T   T
  0.3159960623379163  0.5759692211010830  0.6596427063537362   T   T   T
  0.6999964012008135  0.4147708399444454  0.6687887820313350   T   T   T
  0.2114808536057708  0.8810166087961306  0.8482936940448624   T   T   T
  0.1999930122560798  0.1054246926150810  0.2254564307911338   T   T   T
  0.7114784758401527  0.6392213877498207  0.0459443481907158   T   T   T
  0.8159675826747019  0.9443304419164491  0.2344974907704511   T   T   T
  0.3204299079265809  0.4887613743708528  0.0446548863714895   T   T   T
  0.7115966090809920  0.3450380307131979  0.0258495458025578   T   T   T
  0.2119207100539668  0.8185037731595273  0.1920294900221791   T   T   T
  0.6943605046260686  0.2886770522539805  0.3526594627846436   T   T   T
  0.1943558974232715  0.2316699302559329  0.5414632852694652   T   T   T
 
  0.00000000E+00  0.00000000E+00  0.00000000E+00
  0.00000000E+00  0.00000000E+00  0.00000000E+00
  0.00000000E+00  0.00000000E+00  0.00000000E+00
  0.00000000E+00  0.00000000E+00  0.00000000E+00
  0.00000000E+00  0.00000000E+00  0.00000000E+00
  0.00000000E+00  0.00000000E+00  0.00000000E+00
  0.00000000E+00  0.00000000E+00  0.00000000E+00
  0.00000000E+00  0.00000000E+00  0.00000000E+00
  0.00000000E+00  0.00000000E+00  0.00000000E+00
  0.00000000E+00  0.00000000E+00  0.00000000E+00
  0.00000000E+00  0.00000000E+00  0.00000000E+00
  0.00000000E+00  0.00000000E+00  0.00000000E+00
  0.00000000E+00  0.00000000E+00  0.00000000E+00
  0.00000000E+00  0.00000000E+00  0.00000000E+00
  0.00000000E+00  0.00000000E+00  0.00000000E+00
  0.00000000E+00  0.00000000E+00  0.00000000E+00
  0.00000000E+00  0.00000000E+00  0.00000000E+00
  0.00000000E+00  0.00000000E+00  0.00000000E+00
  0.00000000E+00  0.00000000E+00  0.00000000E+00
  0.00000000E+00  0.00000000E+00  0.00000000E+00
  0.00000000E+00  0.00000000E+00  0.00000000E+00
  0.00000000E+00  0.00000000E+00  0.00000000E+00
  0.00000000E+00  0.00000000E+00  0.00000000E+00
  0.00000000E+00  0.00000000E+00  0.00000000E+00
  0.00000000E+00  0.00000000E+00  0.00000000E+00
  0.00000000E+00  0.00000000E+00  0.00000000E+00
  0.00000000E+00  0.00000000E+00  0.00000000E+00
  0.00000000E+00  0.00000000E+00  0.00000000E+00
