Primitive Cell                          
   1.00000000000000     
     5.0298257774667778   -0.0035578264710433    0.2596922288790683
     2.3775485279934645   10.1771611208451649    0.1510155187624014
     2.5201848485801932    1.6921021763736090    5.6663940995414608
   Li   C    O    F 
    10     4    12     2
Selective dynamics
Direct
  0.9127400896348163  0.7691637614947595  0.1917766645918846   T   T   T
  0.0872599103651837  0.2308362385052405  0.8082233354081154   T   T   T
  0.2518933423320817  0.1916102250761114  0.1736402624659590   T   T   T
  0.4353137160219447  0.5868976921714903  0.3197208754196907   T   T   T
  0.7481066576679183  0.8083897749238957  0.8263597375340410   T   T   T
  0.5646862839780553  0.4131023078285025  0.6802791245803093   T   T   T
  0.3360125084666876  0.6622771593677967  0.8288101715056655   T   T   T
  0.6856322869299092  0.1007527585192705  0.7175034804806657   T   T   T
  0.3143677130700908  0.8992472414807295  0.2824965195193343   T   T   T
  0.6639874915333124  0.3377228406322033  0.1711898284943345   T   T   T
  0.2246836288922935  0.9620135500513527  0.7597305446851337   T   T   T
  0.9504891959729207  0.5373743388615324  0.7461847378924631   T   T   T
  0.7753163711077065  0.0379864499486473  0.2402694553148663   T   T   T
  0.0495108040270793  0.4626256611384676  0.2538152621075369   T   T   T
  0.0667777709795772  0.0768562711901453  0.7165824752437047   T   T   T
  0.7548389342558650  0.6407145538517369  0.7613319407093684   T   T   T
  0.1280977849198806  0.8455645409942463  0.7965066592815546   T   T   T
  0.8731863371514663  0.4163901423616565  0.7892974588692283   T   T   T
  0.4751116448235635  0.9592153968051846  0.7704428730655906   T   T   T
  0.2274154317853956  0.5528544377424680  0.6876909631239201   T   T   T
  0.9332222290204228  0.9231437288098547  0.2834175247562953   T   T   T
  0.2451610657441350  0.3592854461482631  0.2386680592906316   T   T   T
  0.8719022150801194  0.1544354590057537  0.2034933407184454   T   T   T
  0.1268136628485337  0.5836098576383364  0.2107025411307646   T   T   T
  0.5248883551764365  0.0407846031948154  0.2295571269344094   T   T   T
  0.7725845682146044  0.4471455622575320  0.3123090368760657   T   T   T
  0.5577860627606270  0.7568620232395915  0.1884625159480606   T   T   T
  0.4422139372393801  0.2431379767604085  0.8115374840519394   T   T   T
 
  0.00000000E+00  0.00000000E+00  0.00000000E+00
  0.00000000E+00  0.00000000E+00  0.00000000E+00
  0.00000000E+00  0.00000000E+00  0.00000000E+00
  0.00000000E+00  0.00000000E+00  0.00000000E+00
  0.00000000E+00  0.00000000E+00  0.00000000E+00
  0.00000000E+00  0.00000000E+00  0.00000000E+00
  0.00000000E+00  0.00000000E+00  0.00000000E+00
  0.00000000E+00  0.00000000E+00  0.00000000E+00
  0.00000000E+00  0.00000000E+00  0.00000000E+00
  0.00000000E+00  0.00000000E+00  0.00000000E+00
  0.00000000E+00  0.00000000E+00  0.00000000E+00
  0.00000000E+00  0.00000000E+00  0.00000000E+00
  0.00000000E+00  0.00000000E+00  0.00000000E+00
  0.00000000E+00  0.00000000E+00  0.00000000E+00
  0.00000000E+00  0.00000000E+00  0.00000000E+00
  0.00000000E+00  0.00000000E+00  0.00000000E+00
  0.00000000E+00  0.00000000E+00  0.00000000E+00
  0.00000000E+00  0.00000000E+00  0.00000000E+00
  0.00000000E+00  0.00000000E+00  0.00000000E+00
  0.00000000E+00  0.00000000E+00  0.00000000E+00
  0.00000000E+00  0.00000000E+00  0.00000000E+00
  0.00000000E+00  0.00000000E+00  0.00000000E+00
  0.00000000E+00  0.00000000E+00  0.00000000E+00
  0.00000000E+00  0.00000000E+00  0.00000000E+00
  0.00000000E+00  0.00000000E+00  0.00000000E+00
  0.00000000E+00  0.00000000E+00  0.00000000E+00
  0.00000000E+00  0.00000000E+00  0.00000000E+00
  0.00000000E+00  0.00000000E+00  0.00000000E+00
