Primitive Cell                          
   1.00000000000000     
     7.4360136004589581   -1.4690358344948369   -0.1173953444320223
    -3.0972991902481710    3.5491742363816647   -0.4413919027253171
    -1.5968940013386230   -1.1201906457606483   19.1385479197747372
   Li   C    O    F 
    15     6    18     3
Selective dynamics
Direct
  0.0226323601343168  0.7015354476681210  0.3224410553751724   T   T   T
  0.6408032408069673  0.6313473672953194  0.4399468204897943   T   T   T
  0.3298711657881768  0.6203554724559481  0.2063421956913984   T   T   T
  0.7857129695143428  0.2810115119686643  0.7153771768688557   T   T   T
  0.2999381471037452  0.2821048048287196  0.9796165490515421   T   T   T
  0.4574856785226586  0.9230371287806776  0.5002940722310072   T   T   T
  0.9924952150405986  0.6533441550743433  0.1658032901045772   T   T   T
  0.8767324197398310  0.8802200092981352  0.0637575821765282   T   T   T
  0.6413898015232675  0.6441575840417642  0.6077487638529249   T   T   T
  0.7356211567886106  0.8067064301432794  0.3142893003022778   T   T   T
  0.1148114894748744  0.8938413170819217  0.4660311632699745   T   T   T
  0.6538836254633225  0.1259362395569212  0.9698297645358309   T   T   T
  0.2008845528221173  0.3309422065737664  0.8114266764304077   T   T   T
  0.1609605286209472  0.3560212111348378  0.6043410319316678   T   T   T
  0.6891078542181646  0.5667685624988863  0.8702005141062870   T   T   T
  0.3435206858771735  0.7311264566000233  0.3568963198424200   T   T   T
  0.1466890790221740  0.7283181261580935  0.8571652728624173   T   T   T
  0.2010493668413957  0.7056612489231213  0.0594047677392950   T   T   T
  0.5202213167815870  0.4837471768381008  0.7205396399221371   T   T   T
  0.6238542726355121  0.4517960219483044  0.1976595806593338   T   T   T
  0.9743590044514079  0.5507642248052207  0.5739301627076259   T   T   T
  0.9587456334852078  0.3575970339885899  0.8051740034087587   T   T   T
  0.3722829459063774  0.7780607056618081  0.0283009860817955   T   T   T
  0.0917478196828725  0.9144217433515394  0.8816518594788647   T   T   T
  0.9188597919655805  0.3579259247860804  0.6259874647619554   T   T   T
  0.4450808958688484  0.3694114857930089  0.7791714657905970   T   T   T
  0.4257901877014234  0.3562058385675968  0.2191166849501727   T   T   T
  0.3901708765064953  0.9069299129520019  0.8839391455007330   T   T   T
  0.0787974794775081  0.7865516238201238  0.0366984349309405   T   T   T
  0.1425467266207434  0.6338814733058982  0.5369033317507146   T   T   T
  0.7284104768593593  0.6364735554402685  0.1450200378769750   T   T   T
  0.8565235504891788  0.6404967578245149  0.5524076538325104   T   T   T
  0.3284555926074688  0.9195381455648359  0.4054851129082522   T   T   T
  0.4159613504536210  0.5541354430274978  0.6787631913423269   T   T   T
  0.7034617062983131  0.5453327340065783  0.6987128800341793   T   T   T
  0.1325256482855508  0.5248925459873490  0.1158407911714363   T   T   T
  0.7308507650956031  0.3710714046229668  0.2347805463068013   T   T   T
  0.1448307260484967  0.4719253146911910  0.2962379866286113   T   T   T
  0.5462644076260190  0.8034931682584201  0.3701265049255298   T   T   T
  0.9070449156499123  0.8146136654582321  0.3907101880925410   T   T   T
  0.4531159607015169  0.5358881895767524  0.5104849591752867   T   T   T
  0.7021109233161340  0.7788070400476030  0.9718733668640738   T   T   T
 
  0.00000000E+00  0.00000000E+00  0.00000000E+00
  0.00000000E+00  0.00000000E+00  0.00000000E+00
  0.00000000E+00  0.00000000E+00  0.00000000E+00
  0.00000000E+00  0.00000000E+00  0.00000000E+00
  0.00000000E+00  0.00000000E+00  0.00000000E+00
  0.00000000E+00  0.00000000E+00  0.00000000E+00
  0.00000000E+00  0.00000000E+00  0.00000000E+00
  0.00000000E+00  0.00000000E+00  0.00000000E+00
  0.00000000E+00  0.00000000E+00  0.00000000E+00
  0.00000000E+00  0.00000000E+00  0.00000000E+00
  0.00000000E+00  0.00000000E+00  0.00000000E+00
  0.00000000E+00  0.00000000E+00  0.00000000E+00
  0.00000000E+00  0.00000000E+00  0.00000000E+00
  0.00000000E+00  0.00000000E+00  0.00000000E+00
  0.00000000E+00  0.00000000E+00  0.00000000E+00
  0.00000000E+00  0.00000000E+00  0.00000000E+00
  0.00000000E+00  0.00000000E+00  0.00000000E+00
  0.00000000E+00  0.00000000E+00  0.00000000E+00
  0.00000000E+00  0.00000000E+00  0.00000000E+00
  0.00000000E+00  0.00000000E+00  0.00000000E+00
  0.00000000E+00  0.00000000E+00  0.00000000E+00
  0.00000000E+00  0.00000000E+00  0.00000000E+00
  0.00000000E+00  0.00000000E+00  0.00000000E+00
  0.00000000E+00  0.00000000E+00  0.00000000E+00
  0.00000000E+00  0.00000000E+00  0.00000000E+00
  0.00000000E+00  0.00000000E+00  0.00000000E+00
  0.00000000E+00  0.00000000E+00  0.00000000E+00
  0.00000000E+00  0.00000000E+00  0.00000000E+00
  0.00000000E+00  0.00000000E+00  0.00000000E+00
  0.00000000E+00  0.00000000E+00  0.00000000E+00
  0.00000000E+00  0.00000000E+00  0.00000000E+00
  0.00000000E+00  0.00000000E+00  0.00000000E+00
  0.00000000E+00  0.00000000E+00  0.00000000E+00
  0.00000000E+00  0.00000000E+00  0.00000000E+00
  0.00000000E+00  0.00000000E+00  0.00000000E+00
  0.00000000E+00  0.00000000E+00  0.00000000E+00
  0.00000000E+00  0.00000000E+00  0.00000000E+00
  0.00000000E+00  0.00000000E+00  0.00000000E+00
  0.00000000E+00  0.00000000E+00  0.00000000E+00
  0.00000000E+00  0.00000000E+00  0.00000000E+00
  0.00000000E+00  0.00000000E+00  0.00000000E+00
  0.00000000E+00  0.00000000E+00  0.00000000E+00
