Primitive Cell                          
   1.00000000000000     
     4.9689188367946162    0.0021703985558710    0.0063180653332045
     2.4266047195919538    9.2934467345526315   -0.0157676297624739
     2.1976964669140662    0.3106630276028780   10.0833591240846996
   Li   C    O    F 
    15     6    18     3
Selective dynamics
Direct
  0.3663107006300450  0.3004004684872754  0.1496930200383133   T   T   T
  0.9102763638393441  0.9873630654303511  0.7361608108722493   T   T   T
  0.9273766869728917  0.5229353422658889  0.1133331272917104   T   T   T
  0.6957323536064521  0.0496192225428018  0.0369195593310394   T   T   T
  0.0759989722093763  0.1188075975442260  0.1987916706314437   T   T   T
  0.4697046355335459  0.6072515392813500  0.9608002331377890   T   T   T
  0.5291860813303941  0.8681028034262752  0.5847471047672599   T   T   T
  0.8514546736127429  0.4450514237930321  0.3518958383939790   T   T   T
  0.6687713261527577  0.3036467049217109  0.8451296669452759   T   T   T
  0.6440799731648639  0.5575622124815638  0.6425822000603603   T   T   T
  0.0735683934104969  0.9564493155818639  0.4505199299388210   T   T   T
  0.2614008590504966  0.4475706617075872  0.5186720446361477   T   T   T
  0.3834279146198583  0.1402614969556240  0.6160308383352913   T   T   T
  0.3345975612849159  0.9291753221932524  0.9016899798392544   T   T   T
  0.1008636655852797  0.5000549220922537  0.8190234802898004   T   T   T
  0.9145263846009684  0.7691191811928419  0.9384317940448312   T   T   T
  0.1660233415128403  0.2109236456809072  0.9530450796110941   T   T   T
  0.0998096591035562  0.7168201013824955  0.6099157402840092   T   T   T
  0.5822881969722857  0.0402259201020527  0.3309961362987579   T   T   T
  0.3787143489127871  0.5341837496987694  0.2431353515344910   T   T   T
  0.8267489179155234  0.2827879200115007  0.5882842057170592   T   T   T
  0.9205770774709379  0.8417638706156154  0.5990783845819223   T   T   T
  0.4758371612736454  0.0869293723234321  0.2257550968434785   T   T   T
  0.7321986719489360  0.8899011450548642  0.9165000875721674   T   T   T
  0.0832191101538768  0.2901687357239595  0.5830066123625173   T   T   T
  0.3669630809950277  0.7100332862043075  0.5864594167782400   T   T   T
  0.0666364358469309  0.1001883391461575  0.0030844622516852   T   T   T
  0.1671838167911091  0.7722341976257638  0.9457067210067009   T   T   T
  0.7270995150447632  0.1792294374342518  0.6566034168268118   T   T   T
  0.0073225972070645  0.6010964949515056  0.6440858209581322   T   T   T
  0.5954088544558758  0.5790030186721467  0.2534226649517208   T   T   T
  0.8497171736577087  0.0242952386391480  0.3258936523322689   T   T   T
  0.4199999412691326  0.2133326867444296  0.9688217746387338   T   T   T
  0.3424770858195032  0.5076901354119201  0.1247458916287982   T   T   T
  0.4199600613479646  0.0106318209622245  0.4413997904588598   T   T   T
  0.6611529610732063  0.3838347862544964  0.5290187915900262   T   T   T
  0.0210266909807828  0.3143101027464965  0.8911267693324589   T   T   T
  0.1966494222553195  0.5074241553836956  0.3462327576512436   T   T   T
  0.8415808532841709  0.6464729891932279  0.9509111427959667   T   T   T
  0.4908466416754891  0.4911859728239349  0.8109085238177940   T   T   T
  0.2962098833550399  0.9881352855915466  0.7255587170192257   T   T   T
  0.9773134742464435  0.3186054664095010  0.2039230010069346   T   T   T
 
  0.00000000E+00  0.00000000E+00  0.00000000E+00
  0.00000000E+00  0.00000000E+00  0.00000000E+00
  0.00000000E+00  0.00000000E+00  0.00000000E+00
  0.00000000E+00  0.00000000E+00  0.00000000E+00
  0.00000000E+00  0.00000000E+00  0.00000000E+00
  0.00000000E+00  0.00000000E+00  0.00000000E+00
  0.00000000E+00  0.00000000E+00  0.00000000E+00
  0.00000000E+00  0.00000000E+00  0.00000000E+00
  0.00000000E+00  0.00000000E+00  0.00000000E+00
  0.00000000E+00  0.00000000E+00  0.00000000E+00
  0.00000000E+00  0.00000000E+00  0.00000000E+00
  0.00000000E+00  0.00000000E+00  0.00000000E+00
  0.00000000E+00  0.00000000E+00  0.00000000E+00
  0.00000000E+00  0.00000000E+00  0.00000000E+00
  0.00000000E+00  0.00000000E+00  0.00000000E+00
  0.00000000E+00  0.00000000E+00  0.00000000E+00
  0.00000000E+00  0.00000000E+00  0.00000000E+00
  0.00000000E+00  0.00000000E+00  0.00000000E+00
  0.00000000E+00  0.00000000E+00  0.00000000E+00
  0.00000000E+00  0.00000000E+00  0.00000000E+00
  0.00000000E+00  0.00000000E+00  0.00000000E+00
  0.00000000E+00  0.00000000E+00  0.00000000E+00
  0.00000000E+00  0.00000000E+00  0.00000000E+00
  0.00000000E+00  0.00000000E+00  0.00000000E+00
  0.00000000E+00  0.00000000E+00  0.00000000E+00
  0.00000000E+00  0.00000000E+00  0.00000000E+00
  0.00000000E+00  0.00000000E+00  0.00000000E+00
  0.00000000E+00  0.00000000E+00  0.00000000E+00
  0.00000000E+00  0.00000000E+00  0.00000000E+00
  0.00000000E+00  0.00000000E+00  0.00000000E+00
  0.00000000E+00  0.00000000E+00  0.00000000E+00
  0.00000000E+00  0.00000000E+00  0.00000000E+00
  0.00000000E+00  0.00000000E+00  0.00000000E+00
  0.00000000E+00  0.00000000E+00  0.00000000E+00
  0.00000000E+00  0.00000000E+00  0.00000000E+00
  0.00000000E+00  0.00000000E+00  0.00000000E+00
  0.00000000E+00  0.00000000E+00  0.00000000E+00
  0.00000000E+00  0.00000000E+00  0.00000000E+00
  0.00000000E+00  0.00000000E+00  0.00000000E+00
  0.00000000E+00  0.00000000E+00  0.00000000E+00
  0.00000000E+00  0.00000000E+00  0.00000000E+00
  0.00000000E+00  0.00000000E+00  0.00000000E+00
