Primitive Cell                          
   1.00000000000000     
     7.8147015913179452   -0.8611209613985858    0.4462716781211898
    -1.1479679303459005    6.9132877129637640    2.6860818662633403
    -1.5368739515505982    3.4230373093415269    9.5994429595685293
   Li   C    O    F 
    15     6    18     3
Selective dynamics
Direct
  0.7034827358607174  0.1607363198561274  0.2166673384157747   T   T   T
  0.1609307328407468  0.5083630239921035  0.6009759764652500   T   T   T
  0.2256553770932470  0.8390360978463391  0.8742309687032517   T   T   T
  0.5758231090589945  0.8525697563102099  0.8946571296316890   T   T   T
  0.1132989750414453  0.6507736219545208  0.2403879345574396   T   T   T
  0.7868177156258795  0.8847741610165585  0.1381562560294043   T   T   T
  0.3983491543744861  0.8407656271456361  0.3568572112055222   T   T   T
  0.0017693040755233  0.3392993582710488  0.0360875533486009   T   T   T
  0.7208284652806753  0.6602772464845685  0.7702864102252747   T   T   T
  0.5168107801601991  0.0236870101233961  0.5722953626780267   T   T   T
  0.1120216092190560  0.0916310206346722  0.9470524149829913   T   T   T
  0.3272347208221333  0.2883019314592801  0.2344653759844277   T   T   T
  0.8154373539004780  0.3136661991567635  0.7434527744277659   T   T   T
  0.4630975369128265  0.3419150840804406  0.7268348968615541   T   T   T
  0.0668479423256727  0.0446188662918132  0.4855742628387674   T   T   T
  0.0127164455409812  0.8785926943646416  0.3496741619883039   T   T   T
  0.8628459717312040  0.6503373304231701  0.0298035648220107   T   T   T
  0.4342592242412451  0.9613333671573017  0.0788342221024720   T   T   T
  0.3404370728715875  0.5285323189686650  0.8651581134257569   T   T   T
  0.2962620253815729  0.3169878540647488  0.4923995814603188   T   T   T
  0.8627192691073731  0.1159253033061134  0.6518140860750350   T   T   T
  0.0264002484266044  0.7514599466970679  0.0161853202122515   T   T   T
  0.2904441911567872  0.9435966273690397  0.1383493232386144   T   T   T
  0.8223091007341949  0.4950983571232186  0.0059513775743198   T   T   T
  0.9597504072085599  0.7419933157087755  0.3133100137191036   T   T   T
  0.1466412343148349  0.8448260949829702  0.4498047331859567   T   T   T
  0.4303606375587137  0.9803984178017160  0.9428786736806742   T   T   T
  0.7415775218653806  0.7002550585337985  0.0667622570774995   T   T   T
  0.5774725398146714  0.9605403797994327  0.1560591062780858   T   T   T
  0.9388523806077771  0.0589064979471132  0.2887268550085977   T   T   T
  0.3103941414836555  0.0932137512092126  0.6178352697452567   T   T   T
  0.7050612342911649  0.1217573769558271  0.6751185992067761   T   T   T
  0.2274255720336242  0.3763747374949773  0.3486360814668785   T   T   T
  0.2844369266060127  0.4154851184730930  0.8087708427334377   T   T   T
  0.4843784163645282  0.6877939789557459  0.8035371292735505   T   T   T
  0.8819039187516822  0.9815156934157798  0.6202852423818754   T   T   T
  0.3462335918508046  0.4788682979923635  0.5078960473952705   T   T   T
  0.9936562539672309  0.2415176753886783  0.6665366335262348   T   T   T
  0.2521008206529203  0.4876236888866785  0.9850613270324402   T   T   T
  0.6802161701200475  0.5123192416197924  0.6864673829236736   T   T   T
  0.9209718048076496  0.1863960419067112  0.9527287518122733   T   T   T
  0.5088091745726118  0.1062908217414602  0.3486204563213704   T   T   T
 
  0.00000000E+00  0.00000000E+00  0.00000000E+00
  0.00000000E+00  0.00000000E+00  0.00000000E+00
  0.00000000E+00  0.00000000E+00  0.00000000E+00
  0.00000000E+00  0.00000000E+00  0.00000000E+00
  0.00000000E+00  0.00000000E+00  0.00000000E+00
  0.00000000E+00  0.00000000E+00  0.00000000E+00
  0.00000000E+00  0.00000000E+00  0.00000000E+00
  0.00000000E+00  0.00000000E+00  0.00000000E+00
  0.00000000E+00  0.00000000E+00  0.00000000E+00
  0.00000000E+00  0.00000000E+00  0.00000000E+00
  0.00000000E+00  0.00000000E+00  0.00000000E+00
  0.00000000E+00  0.00000000E+00  0.00000000E+00
  0.00000000E+00  0.00000000E+00  0.00000000E+00
  0.00000000E+00  0.00000000E+00  0.00000000E+00
  0.00000000E+00  0.00000000E+00  0.00000000E+00
  0.00000000E+00  0.00000000E+00  0.00000000E+00
  0.00000000E+00  0.00000000E+00  0.00000000E+00
  0.00000000E+00  0.00000000E+00  0.00000000E+00
  0.00000000E+00  0.00000000E+00  0.00000000E+00
  0.00000000E+00  0.00000000E+00  0.00000000E+00
  0.00000000E+00  0.00000000E+00  0.00000000E+00
  0.00000000E+00  0.00000000E+00  0.00000000E+00
  0.00000000E+00  0.00000000E+00  0.00000000E+00
  0.00000000E+00  0.00000000E+00  0.00000000E+00
  0.00000000E+00  0.00000000E+00  0.00000000E+00
  0.00000000E+00  0.00000000E+00  0.00000000E+00
  0.00000000E+00  0.00000000E+00  0.00000000E+00
  0.00000000E+00  0.00000000E+00  0.00000000E+00
  0.00000000E+00  0.00000000E+00  0.00000000E+00
  0.00000000E+00  0.00000000E+00  0.00000000E+00
  0.00000000E+00  0.00000000E+00  0.00000000E+00
  0.00000000E+00  0.00000000E+00  0.00000000E+00
  0.00000000E+00  0.00000000E+00  0.00000000E+00
  0.00000000E+00  0.00000000E+00  0.00000000E+00
  0.00000000E+00  0.00000000E+00  0.00000000E+00
  0.00000000E+00  0.00000000E+00  0.00000000E+00
  0.00000000E+00  0.00000000E+00  0.00000000E+00
  0.00000000E+00  0.00000000E+00  0.00000000E+00
  0.00000000E+00  0.00000000E+00  0.00000000E+00
  0.00000000E+00  0.00000000E+00  0.00000000E+00
  0.00000000E+00  0.00000000E+00  0.00000000E+00
  0.00000000E+00  0.00000000E+00  0.00000000E+00
