Primitive Cell                          
   1.00000000000000     
     3.1523839688511921   -0.0035356272125833    0.0047541843537551
     0.5175365979827148    4.6763887691841823   -0.0029033925322824
     1.3879153104421595    0.4024693407141950   19.2484151651935242
   Li   C    O    F 
    10     4    12     2
Selective dynamics
Direct
  0.5972814634978008  0.7097429829850483  0.9220316850045762   T   T   T
  0.1615853016308293  0.4779487057856500  0.3386853982260689   T   T   T
  0.7852377450907113  0.4604586955836112  0.0670904256098694   T   T   T
  0.1782478514023040  0.1907716383916949  0.8604383107056108   T   T   T
  0.1233935927309631  0.9073422143485104  0.1490665549398358   T   T   T
  0.0324805968201147  0.1904733683426088  0.5691891461240317   T   T   T
  0.5115401116314686  0.6841810255358567  0.6413252106143759   T   T   T
  0.6833078143093942  0.9813904557497750  0.2961310336038210   T   T   T
  0.8732519502531275  0.0711353226151203  0.7291051979160628   T   T   T
  0.6335634429487484  0.4932965543236136  0.4751974805091095   T   T   T
  0.5459434136541361  0.6033596664487035  0.7863528353032549   T   T   T
  0.7326124729533490  0.4608752084951959  0.2166646930149696   T   T   T
  0.1177394726682834  0.9060557732492569  0.0067749257723548   T   T   T
  0.0864997885014702  0.9561717028833883  0.4198266931567431   T   T   T
  0.6329387618967957  0.4632997412747386  0.8448239935930104   T   T   T
  0.8449951610891375  0.1911445763134694  0.2125333677720889   T   T   T
  0.0402293425497078  0.9757368474571848  0.9420587132241423   T   T   T
  0.1519675133448288  0.0687684405061688  0.3574259382244733   T   T   T
  0.5976642107464230  0.4679205933372188  0.7291698333891219   T   T   T
  0.6762912608785925  0.6218804317262041  0.1615315660722132   T   T   T
  0.3124409080169599  0.6483293959500287  0.0166857816014740   T   T   T
  0.1349421935292128  0.6768995826106021  0.4264991846739505   T   T   T
  0.4107949803079336  0.8764672861766556  0.7878409038943985   T   T   T
  0.6721167193842703  0.5768980627468707  0.2784874067396075   T   T   T
  0.0071897148538724  0.0716516679197809  0.0573603870355370   T   T   T
  0.9689685860896802  0.1127329335688927  0.4720383277795008   T   T   T
  0.9840717575204110  0.9219676417557991  0.6414669232016408   T   T   T
  0.4981414777903410  0.4257752233647025  0.5709272340830083   T   T   T
 
  0.00000000E+00  0.00000000E+00  0.00000000E+00
  0.00000000E+00  0.00000000E+00  0.00000000E+00
  0.00000000E+00  0.00000000E+00  0.00000000E+00
  0.00000000E+00  0.00000000E+00  0.00000000E+00
  0.00000000E+00  0.00000000E+00  0.00000000E+00
  0.00000000E+00  0.00000000E+00  0.00000000E+00
  0.00000000E+00  0.00000000E+00  0.00000000E+00
  0.00000000E+00  0.00000000E+00  0.00000000E+00
  0.00000000E+00  0.00000000E+00  0.00000000E+00
  0.00000000E+00  0.00000000E+00  0.00000000E+00
  0.00000000E+00  0.00000000E+00  0.00000000E+00
  0.00000000E+00  0.00000000E+00  0.00000000E+00
  0.00000000E+00  0.00000000E+00  0.00000000E+00
  0.00000000E+00  0.00000000E+00  0.00000000E+00
  0.00000000E+00  0.00000000E+00  0.00000000E+00
  0.00000000E+00  0.00000000E+00  0.00000000E+00
  0.00000000E+00  0.00000000E+00  0.00000000E+00
  0.00000000E+00  0.00000000E+00  0.00000000E+00
  0.00000000E+00  0.00000000E+00  0.00000000E+00
  0.00000000E+00  0.00000000E+00  0.00000000E+00
  0.00000000E+00  0.00000000E+00  0.00000000E+00
  0.00000000E+00  0.00000000E+00  0.00000000E+00
  0.00000000E+00  0.00000000E+00  0.00000000E+00
  0.00000000E+00  0.00000000E+00  0.00000000E+00
  0.00000000E+00  0.00000000E+00  0.00000000E+00
  0.00000000E+00  0.00000000E+00  0.00000000E+00
  0.00000000E+00  0.00000000E+00  0.00000000E+00
  0.00000000E+00  0.00000000E+00  0.00000000E+00
