Primitive Cell                          
   1.00000000000000     
     5.3766613562884435    0.5080599994841088    0.3342687510119350
    -0.5760553600146506    5.3268243568490501   -0.7918346383290038
    -0.1129953991482233   -3.8702990169824747   10.3433989902890424
   Li   C    O    F 
    10     4    12     2
Selective dynamics
Direct
  0.0036980241195934  0.6697610408055681  0.6687878924665895   T   T   T
  0.0046203428388480  0.1719667829307312  0.1691153451205381   T   T   T
  0.6736997046413862  0.1643825277515205  0.9596441497350696   T   T   T
  0.8023727648045949  0.7066249498657982  0.3782429658043043   T   T   T
  0.3335742002283197  0.7621647177211202  0.9614852334597970   T   T   T
  0.2066336081108986  0.0450071232493201  0.3772666804385310   T   T   T
  0.2039265798014398  0.2049780294663108  0.8754676670193504   T   T   T
  0.3314057869200084  0.6604274768015586  0.4609958799062071   T   T   T
  0.8040769870417108  0.5522516056775615  0.8776445498550913   T   T   T
  0.6772120931487819  0.2610249120089989  0.4616857988347860   T   T   T
  0.5043739317039382  0.7264551149535876  0.7249642329244281   T   T   T
  0.5034375112869469  0.2264111886291573  0.2255963006782196   T   T   T
  0.0039190567709326  0.1159446997902620  0.6130375015627649   T   T   T
  0.0040314778414867  0.6143374009706477  0.1124944001460406   T   T   T
  0.0160784910193215  0.7556383245382392  0.0442471650258156   T   T   T
  0.0211294816211307  0.8417506098028440  0.5442088314517619   T   T   T
  0.5036109982041097  0.0944557722926191  0.0933752974278974   T   T   T
  0.5055794431385650  0.5924254075288218  0.5926517684402626   T   T   T
  0.9898973194247844  0.2531798733417290  0.5431641014769539   T   T   T
  0.2973203480421418  0.8121634944809344  0.7940733518268672   T   T   T
  0.7105214574348295  0.3094348476717101  0.2943781780773520   T   T   T
  0.2959120232300023  0.2812625686055483  0.2951227401488552   T   T   T
  0.7100951677304366  0.7812836527217470  0.7945362838607579   T   T   T
  0.0074499767210838  0.7413643070579710  0.2447360559670457   T   T   T
  0.9886962506422279  0.3395789396071791  0.0424093931926564   T   T   T
  0.0008302344681965  0.2465402016247182  0.7452930880522999   T   T   T
  0.5018394605147449  0.4217102956407501  0.9187787225306820   T   T   T
  0.5061191317976537  0.9188145955661611  0.4187991528533672   T   T   T
 
  0.00000000E+00  0.00000000E+00  0.00000000E+00
  0.00000000E+00  0.00000000E+00  0.00000000E+00
  0.00000000E+00  0.00000000E+00  0.00000000E+00
  0.00000000E+00  0.00000000E+00  0.00000000E+00
  0.00000000E+00  0.00000000E+00  0.00000000E+00
  0.00000000E+00  0.00000000E+00  0.00000000E+00
  0.00000000E+00  0.00000000E+00  0.00000000E+00
  0.00000000E+00  0.00000000E+00  0.00000000E+00
  0.00000000E+00  0.00000000E+00  0.00000000E+00
  0.00000000E+00  0.00000000E+00  0.00000000E+00
  0.00000000E+00  0.00000000E+00  0.00000000E+00
  0.00000000E+00  0.00000000E+00  0.00000000E+00
  0.00000000E+00  0.00000000E+00  0.00000000E+00
  0.00000000E+00  0.00000000E+00  0.00000000E+00
  0.00000000E+00  0.00000000E+00  0.00000000E+00
  0.00000000E+00  0.00000000E+00  0.00000000E+00
  0.00000000E+00  0.00000000E+00  0.00000000E+00
  0.00000000E+00  0.00000000E+00  0.00000000E+00
  0.00000000E+00  0.00000000E+00  0.00000000E+00
  0.00000000E+00  0.00000000E+00  0.00000000E+00
  0.00000000E+00  0.00000000E+00  0.00000000E+00
  0.00000000E+00  0.00000000E+00  0.00000000E+00
  0.00000000E+00  0.00000000E+00  0.00000000E+00
  0.00000000E+00  0.00000000E+00  0.00000000E+00
  0.00000000E+00  0.00000000E+00  0.00000000E+00
  0.00000000E+00  0.00000000E+00  0.00000000E+00
  0.00000000E+00  0.00000000E+00  0.00000000E+00
  0.00000000E+00  0.00000000E+00  0.00000000E+00
