Primitive Cell                          
   1.00000000000000     
     9.8723801548174546   -0.0017507012103472    0.3068433888634529
     0.0228900007733857   11.2072528639402673    0.4222689862436118
     4.7631860842875104    3.8610173345177667    6.0591752521508973
   Li   C    O    F 
    20     8    24     4
Selective dynamics
Direct
  0.2322067274596478  0.6378953571711250  0.5954515674184222   T   T   T
  0.7317605217078338  0.6364445329652142  0.5958061680938229   T   T   T
  0.2302357780226245  0.1371230003386827  0.5952865216248142   T   T   T
  0.7292741753414660  0.1373234909402896  0.5979958523537405   T   T   T
  0.6239455226658706  0.8434273898333799  0.1026313794499956   T   T   T
  0.1232317794850246  0.8420428577029142  0.1032648305281327   T   T   T
  0.6229342027326368  0.3427634351384157  0.1055958301114970   T   T   T
  0.1220869927955803  0.3422231552463302  0.1045571192652375   T   T   T
  0.2595427970864321  0.1340877014170019  0.2730115177845960   T   T   T
  0.7599706726422042  0.1331897107667501  0.2750973656853901   T   T   T
  0.2609198289582935  0.6334326654458522  0.2737077044053038   T   T   T
  0.7601296076877446  0.6336901538675548  0.2726033685316693   T   T   T
  0.6301351578321501  0.5601274040053212  0.0937343792829637   T   T   T
  0.1307071524781733  0.5591408997764233  0.0949146478902563   T   T   T
  0.6277034975272073  0.0587947226182166  0.0990413443273894   T   T   T
  0.1295035456582383  0.0590151333386260  0.0941678395693799   T   T   T
  0.9448734357261159  0.8217272551654418  0.7509884945973369   T   T   T
  0.4452298286955525  0.8199437448716225  0.7537215860667175   T   T   T
  0.9428978102882510  0.3203489801190287  0.7556841007898782   T   T   T
  0.4423275362982722  0.3207073559728997  0.7521294846577931   T   T   T
  0.9437341767109899  0.0837569045591593  0.7150230119055649   T   T   T
  0.4433566627940735  0.0824768778050426  0.7146859829812655   T   T   T
  0.9456107204182871  0.5832014390429592  0.7141534576983233   T   T   T
  0.4450509061654486  0.5821868930834100  0.7143693603357661   T   T   T
  0.8116333019254895  0.8977502149010448  0.2470002132030942   T   T   T
  0.3120824012755889  0.8983032909880464  0.2458434694868572   T   T   T
  0.8119130312472009  0.3988841797249094  0.2469066531134985   T   T   T
  0.3124007054390958  0.3979527795179152  0.2459089702791459   T   T   T
  0.8738990731583272  0.7917837958804199  0.2569266136298793   T   T   T
  0.3804059867299188  0.9986812756298562  0.2424002558137204   T   T   T
  0.8725468491580983  0.2919124462992571  0.2588188534485383   T   T   T
  0.3824388919150081  0.4988378592028937  0.2401567707399721   T   T   T
  0.0129969838880726  0.1722936791737624  0.7270923351802452   T   T   T
  0.5114685637606442  0.1712513955548758  0.7273881154162396   T   T   T
  0.0145970655820378  0.6725741730387114  0.7252560358403812   T   T   T
  0.5137831077793606  0.6706689300631012  0.7269400031889859   T   T   T
  0.8830635636360782  0.4997766647498239  0.2401250647765210   T   T   T
  0.3745179014134337  0.7923439870523765  0.2563918485862118   T   T   T
  0.8812163003188331  0.9983778167648580  0.2421178573924507   T   T   T
  0.3742217423663803  0.2916583256902285  0.2569364930866271   T   T   T
  0.6821166896283799  0.8976207773653471  0.2455891228846951   T   T   T
  0.1835612853106170  0.8983647919019830  0.2425136961083254   T   T   T
  0.6824105996566345  0.3994567914898255  0.2454147370908544   T   T   T
  0.1830276842353413  0.3976991815904967  0.2442705403410486   T   T   T
  0.7783258554084753  0.0527904156071273  0.8010838156306477   T   T   T
  0.2783056706913953  0.0512940153168273  0.7993956868128578   T   T   T
  0.7803471540583971  0.5519564246606450  0.7996199438905123   T   T   T
  0.2797544945744264  0.5510671081399465  0.7999426935590535   T   T   T
  0.0421185784626203  0.0227283573892265  0.6179421704481456   T   T   T
  0.5423752447705894  0.0213434312701963  0.6185083262139912   T   T   T
  0.0440515332962690  0.5214939007151287  0.6187163559850575   T   T   T
  0.5437816580748773  0.5213074738030201  0.6172978203895951   T   T   T
  0.7288752333101627  0.7214763570608866  0.0499092684479692   T   T   T
  0.2291479854256337  0.7196129296404621  0.0519888537912081   T   T   T
  0.7271907758798335  0.2194252901944154  0.0545892550981364   T   T   T
  0.2268188645701841  0.2200474255235392  0.0517906344276611   T   T   T
 
  0.00000000E+00  0.00000000E+00  0.00000000E+00
  0.00000000E+00  0.00000000E+00  0.00000000E+00
  0.00000000E+00  0.00000000E+00  0.00000000E+00
  0.00000000E+00  0.00000000E+00  0.00000000E+00
  0.00000000E+00  0.00000000E+00  0.00000000E+00
  0.00000000E+00  0.00000000E+00  0.00000000E+00
  0.00000000E+00  0.00000000E+00  0.00000000E+00
  0.00000000E+00  0.00000000E+00  0.00000000E+00
  0.00000000E+00  0.00000000E+00  0.00000000E+00
  0.00000000E+00  0.00000000E+00  0.00000000E+00
  0.00000000E+00  0.00000000E+00  0.00000000E+00
  0.00000000E+00  0.00000000E+00  0.00000000E+00
  0.00000000E+00  0.00000000E+00  0.00000000E+00
  0.00000000E+00  0.00000000E+00  0.00000000E+00
  0.00000000E+00  0.00000000E+00  0.00000000E+00
  0.00000000E+00  0.00000000E+00  0.00000000E+00
  0.00000000E+00  0.00000000E+00  0.00000000E+00
  0.00000000E+00  0.00000000E+00  0.00000000E+00
  0.00000000E+00  0.00000000E+00  0.00000000E+00
  0.00000000E+00  0.00000000E+00  0.00000000E+00
  0.00000000E+00  0.00000000E+00  0.00000000E+00
  0.00000000E+00  0.00000000E+00  0.00000000E+00
  0.00000000E+00  0.00000000E+00  0.00000000E+00
  0.00000000E+00  0.00000000E+00  0.00000000E+00
  0.00000000E+00  0.00000000E+00  0.00000000E+00
  0.00000000E+00  0.00000000E+00  0.00000000E+00
  0.00000000E+00  0.00000000E+00  0.00000000E+00
  0.00000000E+00  0.00000000E+00  0.00000000E+00
  0.00000000E+00  0.00000000E+00  0.00000000E+00
  0.00000000E+00  0.00000000E+00  0.00000000E+00
  0.00000000E+00  0.00000000E+00  0.00000000E+00
  0.00000000E+00  0.00000000E+00  0.00000000E+00
  0.00000000E+00  0.00000000E+00  0.00000000E+00
  0.00000000E+00  0.00000000E+00  0.00000000E+00
  0.00000000E+00  0.00000000E+00  0.00000000E+00
  0.00000000E+00  0.00000000E+00  0.00000000E+00
  0.00000000E+00  0.00000000E+00  0.00000000E+00
  0.00000000E+00  0.00000000E+00  0.00000000E+00
  0.00000000E+00  0.00000000E+00  0.00000000E+00
  0.00000000E+00  0.00000000E+00  0.00000000E+00
  0.00000000E+00  0.00000000E+00  0.00000000E+00
  0.00000000E+00  0.00000000E+00  0.00000000E+00
  0.00000000E+00  0.00000000E+00  0.00000000E+00
  0.00000000E+00  0.00000000E+00  0.00000000E+00
  0.00000000E+00  0.00000000E+00  0.00000000E+00
  0.00000000E+00  0.00000000E+00  0.00000000E+00
  0.00000000E+00  0.00000000E+00  0.00000000E+00
  0.00000000E+00  0.00000000E+00  0.00000000E+00
  0.00000000E+00  0.00000000E+00  0.00000000E+00
  0.00000000E+00  0.00000000E+00  0.00000000E+00
  0.00000000E+00  0.00000000E+00  0.00000000E+00
  0.00000000E+00  0.00000000E+00  0.00000000E+00
  0.00000000E+00  0.00000000E+00  0.00000000E+00
  0.00000000E+00  0.00000000E+00  0.00000000E+00
  0.00000000E+00  0.00000000E+00  0.00000000E+00
  0.00000000E+00  0.00000000E+00  0.00000000E+00
