Primitive Cell                          
   1.00000000000000     
     4.7655072207955405   -0.0473074096399219    0.0436649118347746
    -2.3969660838854123    4.2466842952806374    0.0162953394461865
    -0.0795819557642374   -0.0713037802277095   15.0513588432371552
   Li   C    O    F 
    10     4    12     2
Selective dynamics
Direct
  0.5131916570234338  0.8847113734467769  0.3566166559620001   T   T   T
  0.7937249405576381  0.0441488766878280  0.9355133355346226   T   T   T
  0.7953599499174189  0.5367251411225453  0.0543269038869525   T   T   T
  0.1030407713490078  0.7011225467496445  0.6328009984831553   T   T   T
  0.4905310349760299  0.8772760114897906  0.1347331675665515   T   T   T
  0.7987454111434786  0.0423642091752043  0.5540334003578238   T   T   T
  0.5134525098071592  0.4186434087867283  0.2442873308079996   T   T   T
  0.6583091365464213  0.7554102380829377  0.7445292287532013   T   T   T
  0.8161541062044790  0.5423623519358216  0.4355071070904799   T   T   T
  0.0991799303980656  0.7036147994026720  0.8568714498217176   T   T   T
  0.1620560888227658  0.2288038041449880  0.3968650147857531   T   T   T
  0.4609989313612104  0.3968763300998575  0.8927478742951038   T   T   T
  0.1375014971477029  0.2214984422662951  0.0950093455590988   T   T   T
  0.4658663324672432  0.3943037774875293  0.5969090016977461   T   T   T
  0.1380455519833745  0.4859537758686443  0.0948961272709141   T   T   T
  0.4911999876709174  0.6656852815669367  0.6202164856967798   T   T   T
  0.4131100077785845  0.2225551103002417  0.3632871722441777   T   T   T
  0.7100341463557029  0.3995947933029953  0.9298357610119723   T   T   T
  0.1681930187024392  0.4953752008688355  0.4007764461322623   T   T   T
  0.4874523062601810  0.6694995017278771  0.8699301866097073   T   T   T
  0.3890294959303233  0.2143788768380688  0.1271224148801977   T   T   T
  0.7175098527100090  0.3987912382007721  0.5602852568580943   T   T   T
  0.9104732979553916  0.9734094436278227  0.4264769848221519   T   T   T
  0.1974594960405014  0.1380752818472430  0.8789915852923258   T   T   T
  0.8907331664397304  0.9690595416960051  0.0628522795209037   T   T   T
  0.2010518375069879  0.1352598806783618  0.6097639752749231   T   T   T
  0.6172368234567571  0.8279436773345026  0.2446513901555605   T   T   T
  0.9411393047455121  0.6152019784246647  0.7449458033538292   T   T   T
 
  0.00000000E+00  0.00000000E+00  0.00000000E+00
  0.00000000E+00  0.00000000E+00  0.00000000E+00
  0.00000000E+00  0.00000000E+00  0.00000000E+00
  0.00000000E+00  0.00000000E+00  0.00000000E+00
  0.00000000E+00  0.00000000E+00  0.00000000E+00
  0.00000000E+00  0.00000000E+00  0.00000000E+00
  0.00000000E+00  0.00000000E+00  0.00000000E+00
  0.00000000E+00  0.00000000E+00  0.00000000E+00
  0.00000000E+00  0.00000000E+00  0.00000000E+00
  0.00000000E+00  0.00000000E+00  0.00000000E+00
  0.00000000E+00  0.00000000E+00  0.00000000E+00
  0.00000000E+00  0.00000000E+00  0.00000000E+00
  0.00000000E+00  0.00000000E+00  0.00000000E+00
  0.00000000E+00  0.00000000E+00  0.00000000E+00
  0.00000000E+00  0.00000000E+00  0.00000000E+00
  0.00000000E+00  0.00000000E+00  0.00000000E+00
  0.00000000E+00  0.00000000E+00  0.00000000E+00
  0.00000000E+00  0.00000000E+00  0.00000000E+00
  0.00000000E+00  0.00000000E+00  0.00000000E+00
  0.00000000E+00  0.00000000E+00  0.00000000E+00
  0.00000000E+00  0.00000000E+00  0.00000000E+00
  0.00000000E+00  0.00000000E+00  0.00000000E+00
  0.00000000E+00  0.00000000E+00  0.00000000E+00
  0.00000000E+00  0.00000000E+00  0.00000000E+00
  0.00000000E+00  0.00000000E+00  0.00000000E+00
  0.00000000E+00  0.00000000E+00  0.00000000E+00
  0.00000000E+00  0.00000000E+00  0.00000000E+00
  0.00000000E+00  0.00000000E+00  0.00000000E+00
