Primitive Cell                          
   1.00000000000000     
     5.0255953840846663   -0.0015610782140493   -0.0022616545447786
     1.6252153084769052    8.2127169040964993    0.0036833113756850
     2.5017096963469112    0.1527879111786564   10.1994796157964593
   Li   C    O    F 
    15     6    18     3
Selective dynamics
Direct
  0.8441754059200477  0.1600605370329262  0.3597220333600717   T   T   T
  0.0656810923059581  0.1690446231020886  0.8032158364087536   T   T   T
  0.2499111837473578  0.4926650254725260  0.6315173102343579   T   T   T
  0.5035421445120463  0.2667349612985888  0.9607192624838206   T   T   T
  0.2203192738589053  0.8311835771211733  0.2168230276407428   T   T   T
  0.0745325597312814  0.5116942252070089  0.9450324748402821   T   T   T
  0.6893927307330898  0.4942304838212479  0.7832024048876107   T   T   T
  0.4141073087037341  0.1498870555002654  0.2325465382997365   T   T   T
  0.9550902222260262  0.5017918753235477  0.2191624311647544   T   T   T
  0.6836450791358715  0.8716326128718279  0.0483620023654368   T   T   T
  0.8552935315591768  0.8111349809322803  0.7745402403319872   T   T   T
  0.3840662486030126  0.4937172029392940  0.3604259554348985   T   T   T
  0.6928932614517933  0.1586798306579382  0.6369460838394261   T   T   T
  0.6193561164969665  0.8255003314455962  0.3697643073817645   T   T   T
  0.4766339494926157  0.8185294400001055  0.6378396917832703   T   T   T
  0.9547395782747046  0.2325543650181388  0.0828367795997167   T   T   T
  0.2458261960859929  0.2226371735760324  0.5078022306958516   T   T   T
  0.0261301100005369  0.8889986588476901  0.4948953137000984   T   T   T
  0.2432059826581465  0.8809790352159936  0.9181234960361522   T   T   T
  0.5023920164190798  0.5583688571023373  0.0802500829300428   T   T   T
  0.7939904669604658  0.5552286211780384  0.4981533310943078   T   T   T
  0.0432238697531204  0.2458820257752308  0.1890495389098206   T   T   T
  0.7107881149214776  0.5672159096260501  0.3879401095066655   T   T   T
  0.0032559604247524  0.2056915742529597  0.4995270403320404   T   T   T
  0.3044140816736842  0.2308087973439328  0.6223730729792507   T   T   T
  0.0527278781336449  0.5438943128869624  0.4953771987681037   T   T   T
  0.7103473921550574  0.2021317833369523  0.0921705255544083   T   T   T
  0.4479301069910591  0.8573669985791881  0.8155185887682990   T   T   T
  0.4386642315246192  0.2377745326771787  0.4006382853713220   T   T   T
  0.7484751685902680  0.5858537515958773  0.0801513029505543   T   T   T
  0.2810007744740304  0.8601946508582685  0.5028323538598301   T   T   T
  0.9578601177261135  0.9049204809985270  0.3808464322417606   T   T   T
  0.3091330183403045  0.5758065261808909  0.1892890566485121   T   T   T
  0.8257033536081408  0.9057237445694710  0.6009505898081571   T   T   T
  0.6077220193967463  0.5626156014891919  0.6095658130700770   T   T   T
  0.4479168621355356  0.5140973539184515  0.9742854148240312   T   T   T
  0.2915771398357379  0.8821883406758886  0.0328107509625184   T   T   T
  0.1144729925358590  0.2572957459845284  0.9678791570290670   T   T   T
  0.9872691572037411  0.9088063464844680  0.9023178210237290   T   T   T
  0.7074047571729523  0.2595634484112210  0.7893517004225359   T   T   T
  0.0112672755280983  0.5767025946720850  0.7838903679985023   T   T   T
  0.5357672595402647  0.9203070722263789  0.2229987992634292   T   T   T
 
  0.00000000E+00  0.00000000E+00  0.00000000E+00
  0.00000000E+00  0.00000000E+00  0.00000000E+00
  0.00000000E+00  0.00000000E+00  0.00000000E+00
  0.00000000E+00  0.00000000E+00  0.00000000E+00
  0.00000000E+00  0.00000000E+00  0.00000000E+00
  0.00000000E+00  0.00000000E+00  0.00000000E+00
  0.00000000E+00  0.00000000E+00  0.00000000E+00
  0.00000000E+00  0.00000000E+00  0.00000000E+00
  0.00000000E+00  0.00000000E+00  0.00000000E+00
  0.00000000E+00  0.00000000E+00  0.00000000E+00
  0.00000000E+00  0.00000000E+00  0.00000000E+00
  0.00000000E+00  0.00000000E+00  0.00000000E+00
  0.00000000E+00  0.00000000E+00  0.00000000E+00
  0.00000000E+00  0.00000000E+00  0.00000000E+00
  0.00000000E+00  0.00000000E+00  0.00000000E+00
  0.00000000E+00  0.00000000E+00  0.00000000E+00
  0.00000000E+00  0.00000000E+00  0.00000000E+00
  0.00000000E+00  0.00000000E+00  0.00000000E+00
  0.00000000E+00  0.00000000E+00  0.00000000E+00
  0.00000000E+00  0.00000000E+00  0.00000000E+00
  0.00000000E+00  0.00000000E+00  0.00000000E+00
  0.00000000E+00  0.00000000E+00  0.00000000E+00
  0.00000000E+00  0.00000000E+00  0.00000000E+00
  0.00000000E+00  0.00000000E+00  0.00000000E+00
  0.00000000E+00  0.00000000E+00  0.00000000E+00
  0.00000000E+00  0.00000000E+00  0.00000000E+00
  0.00000000E+00  0.00000000E+00  0.00000000E+00
  0.00000000E+00  0.00000000E+00  0.00000000E+00
  0.00000000E+00  0.00000000E+00  0.00000000E+00
  0.00000000E+00  0.00000000E+00  0.00000000E+00
  0.00000000E+00  0.00000000E+00  0.00000000E+00
  0.00000000E+00  0.00000000E+00  0.00000000E+00
  0.00000000E+00  0.00000000E+00  0.00000000E+00
  0.00000000E+00  0.00000000E+00  0.00000000E+00
  0.00000000E+00  0.00000000E+00  0.00000000E+00
  0.00000000E+00  0.00000000E+00  0.00000000E+00
  0.00000000E+00  0.00000000E+00  0.00000000E+00
  0.00000000E+00  0.00000000E+00  0.00000000E+00
  0.00000000E+00  0.00000000E+00  0.00000000E+00
  0.00000000E+00  0.00000000E+00  0.00000000E+00
  0.00000000E+00  0.00000000E+00  0.00000000E+00
  0.00000000E+00  0.00000000E+00  0.00000000E+00
