Primitive Cell                          
   1.00000000000000     
     4.7626878230035965    0.0000000000000000    0.0000000000000000
     0.0000000000000000    8.2506027876987940    0.0559496618368743
     0.0000000000000000    0.2559132988615673    8.2120578366441066
   Li   C    O    F 
    10     4    12     2
Selective dynamics
Direct
  0.0062678276118149  0.0600093071749512  0.6808867654818158   T   T   T
  0.5062678276118149  0.9399906928250488  0.3191132345181842   T   T   T
  0.9980261539363013  0.7184663615470299  0.5079107286625799   T   T   T
  0.4998549803891663  0.6457838758954608  0.3045911880705532   T   T   T
  0.9998549803891663  0.3542161241045392  0.6954088119294468   T   T   T
  0.4946128643102270  0.2519835942363571  0.1899679154405618   T   T   T
  0.4883825438334313  0.8976647814478085  0.9751521987457537   T   T   T
  0.9946128643102270  0.7480164057636429  0.8100320845594382   T   T   T
  0.9883825438334313  0.1023352185521915  0.0248478012542463   T   T   T
  0.4980261539363013  0.2815336384529701  0.4920892713374201   T   T   T
  0.5105789338344024  0.1999530721695564  0.8462039836607573   T   T   T
  0.0021394402654664  0.1590760166503102  0.3658049809705446   T   T   T
  0.0105789338344024  0.8000469278304436  0.1537960163392427   T   T   T
  0.5021394402654664  0.8409239833496969  0.6341950190294554   T   T   T
  0.3872964137479897  0.1488935542569649  0.9815092792337481   T   T   T
  0.8956103100730886  0.2153821436190881  0.4973913990940630   T   T   T
  0.8426349135778821  0.1330218747492822  0.2410810145173841   T   T   T
  0.3651684154900749  0.2459496449365659  0.7207704679723008   T   T   T
  0.7842378037082938  0.1997220326900191  0.8416665804565113   T   T   T
  0.2687773715964639  0.1260603567404104  0.3599754659371968   T   T   T
  0.3426349135778821  0.8669781252507178  0.7589189854826159   T   T   T
  0.8651684154900749  0.7540503550634341  0.2792295320276992   T   T   T
  0.2842378037082938  0.8002779673099809  0.1583334195434887   T   T   T
  0.7687773715964639  0.8739396432595896  0.6400245340628032   T   T   T
  0.8872964137479897  0.8511064457430351  0.0184907207662519   T   T   T
  0.3956103100730886  0.7846178563809119  0.5026086009059370   T   T   T
  0.9727315065851840  0.5678893814480048  0.6869868656164755   T   T   T
  0.4727315065851840  0.4321106185519952  0.3130131343835245   T   T   T
 
  0.00000000E+00  0.00000000E+00  0.00000000E+00
  0.00000000E+00  0.00000000E+00  0.00000000E+00
  0.00000000E+00  0.00000000E+00  0.00000000E+00
  0.00000000E+00  0.00000000E+00  0.00000000E+00
  0.00000000E+00  0.00000000E+00  0.00000000E+00
  0.00000000E+00  0.00000000E+00  0.00000000E+00
  0.00000000E+00  0.00000000E+00  0.00000000E+00
  0.00000000E+00  0.00000000E+00  0.00000000E+00
  0.00000000E+00  0.00000000E+00  0.00000000E+00
  0.00000000E+00  0.00000000E+00  0.00000000E+00
  0.00000000E+00  0.00000000E+00  0.00000000E+00
  0.00000000E+00  0.00000000E+00  0.00000000E+00
  0.00000000E+00  0.00000000E+00  0.00000000E+00
  0.00000000E+00  0.00000000E+00  0.00000000E+00
  0.00000000E+00  0.00000000E+00  0.00000000E+00
  0.00000000E+00  0.00000000E+00  0.00000000E+00
  0.00000000E+00  0.00000000E+00  0.00000000E+00
  0.00000000E+00  0.00000000E+00  0.00000000E+00
  0.00000000E+00  0.00000000E+00  0.00000000E+00
  0.00000000E+00  0.00000000E+00  0.00000000E+00
  0.00000000E+00  0.00000000E+00  0.00000000E+00
  0.00000000E+00  0.00000000E+00  0.00000000E+00
  0.00000000E+00  0.00000000E+00  0.00000000E+00
  0.00000000E+00  0.00000000E+00  0.00000000E+00
  0.00000000E+00  0.00000000E+00  0.00000000E+00
  0.00000000E+00  0.00000000E+00  0.00000000E+00
  0.00000000E+00  0.00000000E+00  0.00000000E+00
  0.00000000E+00  0.00000000E+00  0.00000000E+00
