Primitive Cell                          
   1.00000000000000     
     5.7152650628973944   -0.0437421592016487    0.0556298467215245
     2.6595263056839022    5.0716561714031307    0.0593495814530414
     0.1201537911008636    0.0973341706515202   10.0769726324349715
   Li   C    O    F 
    10     4    12     2
Selective dynamics
Direct
  0.2764111349372698  0.1289989922014030  0.5621256152977452   T   T   T
  0.2762886050568056  0.1291177531066552  0.0621288782834952   T   T   T
  0.2846827348960375  0.5955087368182248  0.6381121769033768   T   T   T
  0.2845422055556028  0.5956852278391906  0.1381092606376058   T   T   T
  0.5282236923166153  0.8233711501357703  0.8044758517775321   T   T   T
  0.5283269981170662  0.8232681777201165  0.3044982731032846   T   T   T
  0.7454254777137237  0.1353153853789166  0.6383838995433067   T   T   T
  0.7452439417399432  0.1354580587494780  0.1383866113434280   T   T   T
  0.9677586728095733  0.3837846906915914  0.8049652690460647   T   T   T
  0.9678584525917486  0.3836876004814940  0.3049425443181235   T   T   T
  0.4685369602020941  0.3199597312300426  0.8830215226248725   T   T   T
  0.4685382958827731  0.3199464546068285  0.3829921734146566   T   T   T
  0.8154224674707180  0.6683145869249714  0.0548905095342889   T   T   T
  0.8155390753437928  0.6682007336532649  0.5548570115567131   T   T   T
  0.5131839502580462  0.3649678201518682  0.0015221539622630   T   T   T
  0.5133181426878011  0.3648461568614891  0.5015437248328141   T   T   T
  0.3354093198469528  0.1890584755944147  0.8639557782944109   T   T   T
  0.3354806812064552  0.1889933032498092  0.3639562343467091   T   T   T
  0.8176774656539365  0.6720492330914993  0.9276323487716880   T   T   T
  0.8177942101340179  0.6719340191710046  0.4276540177050308   T   T   T
  0.5558437314583884  0.4047132285028070  0.7808827957478002   T   T   T
  0.5556845938044432  0.4048740091025493  0.2808881018185261   T   T   T
  0.6281607966040639  0.8558292816901343  0.6219690923826562   T   T   T
  0.6280385360549303  0.8559176617447548  0.1219617807135975   T   T   T
  0.0035338606191004  0.4796027333469368  0.6218270999238058   T   T   T
  0.0034234469776564  0.4797443466133089  0.1218208006128094   T   T   T
  0.1048030052710374  0.9541289260437225  0.6551769625325861   T   T   T
  0.1046046729264631  0.9543218457689022  0.1551766909311638   T   T   T
 
  0.00000000E+00  0.00000000E+00  0.00000000E+00
  0.00000000E+00  0.00000000E+00  0.00000000E+00
  0.00000000E+00  0.00000000E+00  0.00000000E+00
  0.00000000E+00  0.00000000E+00  0.00000000E+00
  0.00000000E+00  0.00000000E+00  0.00000000E+00
  0.00000000E+00  0.00000000E+00  0.00000000E+00
  0.00000000E+00  0.00000000E+00  0.00000000E+00
  0.00000000E+00  0.00000000E+00  0.00000000E+00
  0.00000000E+00  0.00000000E+00  0.00000000E+00
  0.00000000E+00  0.00000000E+00  0.00000000E+00
  0.00000000E+00  0.00000000E+00  0.00000000E+00
  0.00000000E+00  0.00000000E+00  0.00000000E+00
  0.00000000E+00  0.00000000E+00  0.00000000E+00
  0.00000000E+00  0.00000000E+00  0.00000000E+00
  0.00000000E+00  0.00000000E+00  0.00000000E+00
  0.00000000E+00  0.00000000E+00  0.00000000E+00
  0.00000000E+00  0.00000000E+00  0.00000000E+00
  0.00000000E+00  0.00000000E+00  0.00000000E+00
  0.00000000E+00  0.00000000E+00  0.00000000E+00
  0.00000000E+00  0.00000000E+00  0.00000000E+00
  0.00000000E+00  0.00000000E+00  0.00000000E+00
  0.00000000E+00  0.00000000E+00  0.00000000E+00
  0.00000000E+00  0.00000000E+00  0.00000000E+00
  0.00000000E+00  0.00000000E+00  0.00000000E+00
  0.00000000E+00  0.00000000E+00  0.00000000E+00
  0.00000000E+00  0.00000000E+00  0.00000000E+00
  0.00000000E+00  0.00000000E+00  0.00000000E+00
  0.00000000E+00  0.00000000E+00  0.00000000E+00
