Primitive Cell                          
   1.00000000000000     
     7.6820734692280421    0.1988001612190051    0.2708278826255825
     1.4868894520145530    3.9635592401777604    0.9445660733748436
     3.0239121713539054    3.1286078320968054   14.7352649064183296
   Li   C    O    F 
    15     6    18     3
Selective dynamics
Direct
  0.8173541669891351  0.1595189012872270  0.3691212483888932   T   T   T
  0.6562291557960596  0.3003750313405966  0.5264290165946118   T   T   T
  0.7939648092274176  0.3015233412083647 -0.0129041167327794   T   T   T
  0.2794740954715496  0.0389513592776720  0.9355253894282370   T   T   T
  0.8880229175987544  0.5612087336143233  0.1119973174138204   T   T   T
  0.3610450628559859  0.2777424802863175  0.1010831529684791   T   T   T
  0.2187622494996618  0.8582630441679661  0.2917053568617478   T   T   T
  0.6753776792243208  0.9776500554247730  0.7721596716507432   T   T   T
  0.4275639641997476  0.6451878824171234  0.7611107876777683   T   T   T
  0.1949322321743609  0.4490088985221009  0.5314243135057591   T   T   T
  0.7708954650404889  0.5950230232289957  0.6190028739084806   T   T   T
  0.5193971337290296 -0.0632499213000364  0.4031352200959687   T   T   T
  0.9440910342008704  0.3114537416486732  0.7736624010353004   T   T   T
  0.0507416320145252  0.9352004770541572  0.6355848558405405   T   T   T
  0.7450124071427755  0.9727654876163957  0.2263540136375217   T   T   T
  0.5429448850162807  0.6055899775407448  0.2628046946785543   T   T   T
  0.6130312469847735  0.0120513055516945  0.9575077960484287   T   T   T
  0.0976948308957515  0.9603561389643982  0.1183599341508958   T   T   T
  0.0572836854655330  0.6076957592359626  0.8365296457847072   T   T   T
  0.9331174205776651  0.5288497446057588  0.4309834336935890   T   T   T
  0.4186555100728430  0.6381420836722814  0.5968488636829538   T   T   T
  0.7748939125902211  0.7715605624148419 -0.0108987131919518   T   T   T
  0.9236910869745738  0.9877977524106472  0.1145354854728673   T   T   T
  0.5400483459417503  0.0007808450097698  0.8910814003627366   T   T   T
  0.4341754772196882  0.4211759108445943  0.3244218789429815   T   T   T
  0.4840051358925364  0.9582378425990427  0.2300168850752041   T   T   T
  0.2371354838998638  0.7831256289234511  0.0781321532586283   T   T   T
  0.5315109005556434  0.2557916636213459 -0.0077571930684425   T   T   T
  0.1235028610733634  0.1280095294804359  0.1641467822514036   T   T   T
  0.7142092545020680  0.4370665455592547  0.2373287073703033   T   T   T
  0.0473888903875575  0.7138662972765442  0.4091206306938883   T   T   T
  0.3184832680824396  0.8953150136020451  0.6239804705909187   T   T   T
  0.8093486184546017  0.6275633098653064  0.3686463969701465   T   T   T
  0.9424234302227218  0.8681783734221264  0.7677858894505631   T   T   T
  0.2031050047449747  0.6563545548910349  0.8474225738180375   T   T   T
  0.3965687700151934  0.6439182346550684  0.5142043498741597   T   T   T
  0.9307477093609422  0.2535934429578823  0.5137987532938242   T   T   T
  0.5476184903122999  0.3593872004194112  0.6506759301434628   T   T   T
  0.0218603393100865  0.2992750117034185  0.8890033578191743   T   T   T
  0.0264335501410825  0.5154851663538443  0.6344755149361846   T   T   T
  0.6844134057784945  0.5946656703466767  0.7451106932134353   T   T   T
  0.6723790055253600 -0.0542638178022291  0.4950611124334912   T   T   T
 
  0.00000000E+00  0.00000000E+00  0.00000000E+00
  0.00000000E+00  0.00000000E+00  0.00000000E+00
  0.00000000E+00  0.00000000E+00  0.00000000E+00
  0.00000000E+00  0.00000000E+00  0.00000000E+00
  0.00000000E+00  0.00000000E+00  0.00000000E+00
  0.00000000E+00  0.00000000E+00  0.00000000E+00
  0.00000000E+00  0.00000000E+00  0.00000000E+00
  0.00000000E+00  0.00000000E+00  0.00000000E+00
  0.00000000E+00  0.00000000E+00  0.00000000E+00
  0.00000000E+00  0.00000000E+00  0.00000000E+00
  0.00000000E+00  0.00000000E+00  0.00000000E+00
  0.00000000E+00  0.00000000E+00  0.00000000E+00
  0.00000000E+00  0.00000000E+00  0.00000000E+00
  0.00000000E+00  0.00000000E+00  0.00000000E+00
  0.00000000E+00  0.00000000E+00  0.00000000E+00
  0.00000000E+00  0.00000000E+00  0.00000000E+00
  0.00000000E+00  0.00000000E+00  0.00000000E+00
  0.00000000E+00  0.00000000E+00  0.00000000E+00
  0.00000000E+00  0.00000000E+00  0.00000000E+00
  0.00000000E+00  0.00000000E+00  0.00000000E+00
  0.00000000E+00  0.00000000E+00  0.00000000E+00
  0.00000000E+00  0.00000000E+00  0.00000000E+00
  0.00000000E+00  0.00000000E+00  0.00000000E+00
  0.00000000E+00  0.00000000E+00  0.00000000E+00
  0.00000000E+00  0.00000000E+00  0.00000000E+00
  0.00000000E+00  0.00000000E+00  0.00000000E+00
  0.00000000E+00  0.00000000E+00  0.00000000E+00
  0.00000000E+00  0.00000000E+00  0.00000000E+00
  0.00000000E+00  0.00000000E+00  0.00000000E+00
  0.00000000E+00  0.00000000E+00  0.00000000E+00
  0.00000000E+00  0.00000000E+00  0.00000000E+00
  0.00000000E+00  0.00000000E+00  0.00000000E+00
  0.00000000E+00  0.00000000E+00  0.00000000E+00
  0.00000000E+00  0.00000000E+00  0.00000000E+00
  0.00000000E+00  0.00000000E+00  0.00000000E+00
  0.00000000E+00  0.00000000E+00  0.00000000E+00
  0.00000000E+00  0.00000000E+00  0.00000000E+00
  0.00000000E+00  0.00000000E+00  0.00000000E+00
  0.00000000E+00  0.00000000E+00  0.00000000E+00
  0.00000000E+00  0.00000000E+00  0.00000000E+00
  0.00000000E+00  0.00000000E+00  0.00000000E+00
  0.00000000E+00  0.00000000E+00  0.00000000E+00
