Primitive Cell                          
   1.00000000000000     
     5.5622578257202546    0.0000000000000000    0.0000000000000000
     0.0000000000000000    4.9633937228083944   -0.0221816344182965
     0.0000000000000000    0.2677211495363943    5.1317529542465827
   Li   C    O    F 
     5     2     6     1
Selective dynamics
Direct
  0.2677592319854227  0.3448068630554388  0.6787746385084361   T   T   T
  0.7322407680145773  0.3448068630554388  0.6787746385084361   T   T   T
  0.7675512734630772  0.8870530174658171  0.9632170598984970   T   T   T
  0.2324487265369228  0.8870530174658171  0.9632170598984970   T   T   T
  0.0000000000000000  0.3990311786888583  0.2164258211676611   T   T   T
  0.0000000000000000  0.8767077409962596  0.4861938053841968   T   T   T
  0.5000000000000000  0.4668486864185724  0.1562077742014054   T   T   T
  0.0000000000000000  0.6185742790804554  0.5276931701808465   T   T   T
  0.5000000000000000  0.3925187109229284  0.3978092277371488   T   T   T
  0.7029935373123095  0.5074099892122419  0.0301466086856408   T   T   T
  0.0000000000000000  0.9879666138559315  0.2516087817218633   T   T   T
  0.2970064626876905  0.5074099892122419  0.0301466086856408   T   T   T
  0.0000000000000000  0.0338130272390629  0.6856993067067094   T   T   T
  0.5000000000000000  0.0523477990276362  0.8344148499674873   T   T   T
 
  0.00000000E+00  0.00000000E+00  0.00000000E+00
  0.00000000E+00  0.00000000E+00  0.00000000E+00
  0.00000000E+00  0.00000000E+00  0.00000000E+00
  0.00000000E+00  0.00000000E+00  0.00000000E+00
  0.00000000E+00  0.00000000E+00  0.00000000E+00
  0.00000000E+00  0.00000000E+00  0.00000000E+00
  0.00000000E+00  0.00000000E+00  0.00000000E+00
  0.00000000E+00  0.00000000E+00  0.00000000E+00
  0.00000000E+00  0.00000000E+00  0.00000000E+00
  0.00000000E+00  0.00000000E+00  0.00000000E+00
  0.00000000E+00  0.00000000E+00  0.00000000E+00
  0.00000000E+00  0.00000000E+00  0.00000000E+00
  0.00000000E+00  0.00000000E+00  0.00000000E+00
  0.00000000E+00  0.00000000E+00  0.00000000E+00
