lammps to VASP
1.0
 107.6601113541 0.0000000000 0.0000000000
 38.4947103403 39.7975998481 0.0000000000
 0.2083115394 -0.1470584145 54.3273004245
  Li   C   O   F
  10780   1568   4704   7644
Direct 
  0.37733800708435444 0.9395180778828586 0.5274401594798197
  0.9398611849858889 0.9118340745351977 0.041531973471351936
  0.8189539157970808 0.008982352742698587 0.8264408437228764
  0.9390466692112827 0.5762824531823391 0.9231601719233172
  0.8174700012293631 0.6511125331184104 0.6658309858462095
  0.31029212650139476 0.6101529211311731 0.034828345697573544
  0.45886500125637075 0.4962863077619396 0.48554777789234543
  0.0031775800020096955 0.34273170384900586 0.6357963626042912
  0.9287927854447475 0.8583817977834447 0.08116029998819067
  0.07767429057506325 0.6230769558721582 0.8708604997916373
  0.9558646334405426 0.8349761794913638 0.08804578844569165
  0.9295754082004621 0.9036251940711321 0.08169465379876423
  0.9488378568247723 0.9318060141685945 0.126771990255117
  0.9493921586321726 0.8750656033907964 0.1245132732005017
  0.9183508190173222 0.948786890729305 0.12947928472494682
  0.909582600361118 0.9065716673708377 0.12972023172392746
  0.9744545306633092 0.8885396102706242 0.1730187203589289
  0.9707570092926255 0.8465680934502159 0.1766524367125399
  0.9391271987156614 0.9201386168854889 0.17277814149898416
  0.9363188907975544 0.8719250964756046 0.17425787635368647
  0.9638931513060809 0.8803633681128604 0.2199741181068015
  0.9617402281420482 0.8344213489518918 0.22145587772620118
  0.9250159201493853 0.9197746920594151 0.21709158945589488
  0.9262815904140792 0.8632065876724458 0.2233830855790104
  0.9459553594390915 0.9313295915709792 0.26440113695627987
  0.9437634705515046 0.8846659540787553 0.2657558886083024
  0.912106146540513 0.9631339449523174 0.2639722549794847
  0.9081465110247344 0.9161304632759308 0.26243711519988305
  0.9403817975950054 0.9216162618224545 0.3122242384117115
  0.9331038303253966 0.87318451185009 0.30700586757817355
  0.9706278423201188 0.897754765531806 0.30861831655530914
  0.9702913428557665 0.8490486819649626 0.31415880904523824
  0.9569668753175029 0.8884487199617862 0.3565021609516602
  0.9575898287597076 0.8414129635955723 0.3543927242760925
  0.9240566669830728 0.9177078528717358 0.3459163229750547
  0.9242766435064501 0.8621722118080666 0.35621685319885654
  0.9816331961560342 0.9103480241342972 0.39689253527276164
  0.9795610561140131 0.858294725105012 0.39623724778890285
  0.9446215282194872 0.9426456973344661 0.3939676706327292
  0.942054584911152 0.8880347670721713 0.3967968191234339
  0.9732418162615526 0.8944401149581956 0.43907574669857763
  0.9734789727675588 0.8495390348045063 0.43870024488198445
  0.9353465379335776 0.9206322362846944 0.4369239740338842
  0.9316938280475868 0.8728732642853276 0.4403752774952188
  0.9597008407107334 0.8884745122119996 0.4845225106774317
  0.9915092496084918 0.8143501561365625 0.48403656715007576
  0.9706127907100258 0.5242279817353146 0.7379070869851315
  0.8165617878905018 0.10641732741010121 0.6210063768379853
  0.6399646940026956 0.11572325580748737 0.6451710231528657
  0.9149021234122386 0.8738921269186691 0.4767437328493784
  0.18386138935533722 0.033769473523344556 0.6793490512435648
  0.7539883755185381 0.7858073719839113 0.7877641566137763
  0.8337600374829788 0.8671206264694511 0.8052562829034098
  0.12296077751015429 0.5024585600554348 0.6789459389992809
  0.29516633350399296 0.3641041785187005 0.5240937756437096
  0.12844015622908792 0.06394735364880107 0.6551899270142226
  0.41098060608995357 0.7770768858346216 0.485487034951426
  0.4769316911309482 0.45163782617696474 0.6303718339106629
  0.4580071403827049 0.46416240488422844 0.8204199297911294
  0.7775758063985669 0.379296327028813 0.8655298465521573
  0.9160281216689805 0.7643099847346516 0.08842018584517723
  0.954777748807559 0.7842766216161395 0.09130492333029915
  0.9080977102585823 0.03353502520127344 0.03926000341144511
  0.9203391050346422 0.800238665741569 0.09233203124039231
  0.9404357461404675 0.8357867388128957 0.1258424391895309
  0.9399499934838138 0.7747056616170419 0.12869662113467512
  0.9141654668906077 0.8464511927431484 0.12937620579490164
  0.9042246915679274 0.8122272613634561 0.1325699960006412
  0.9725738251458786 0.7878448308327057 0.17634706538228104
  0.9627544432989905 0.7482951584598669 0.16966920734101393
  0.935164510197334 0.8266698248990539 0.16642976789482578
  0.9262407669921084 0.7838618269060332 0.1789718967080747
  0.9556761766633648 0.7883286649650627 0.21752415282304882
  0.9505220870838939 0.7503600364503422 0.21983422527316876
  0.9209533350346426 0.8200137022776889 0.2154055126715842
  0.917598085757989 0.7661176898957444 0.2247083861081629
  0.9432492249090821 0.8348749588678464 0.2660135859334154
  0.943996903549914 0.7781440108758089 0.26767573368039416
  0.908981979886663 0.8613725421718266 0.26696706603633347
  0.9088508413584576 0.807500595602946 0.261702677823311
  0.9282327870207633 0.825469274338925 0.31277276557516626
  0.9288604556140484 0.7718012637364251 0.3048982715977852
  0.9646423092523346 0.8066375480996962 0.30830171698445596
  0.9599688911142279 0.7613914302867247 0.3077108538318755
  0.9497315534029409 0.8007877546680863 0.35380922390422953
  0.9523298250102705 0.7413273963622083 0.3498682955251803
  0.9206170959331846 0.8185515354130707 0.35214891685243016
  0.910094773351568 0.7815066995662304 0.35149915145410954
  0.9757699233601462 0.8070242162640373 0.3952635200390117
  0.9705139407736131 0.7707870255015588 0.3847016110997381
  0.9430629454362635 0.8412874471327161 0.39182510144393273
  0.9399332214734171 0.7858780663603633 0.3914146264189314
  0.9614000987616167 0.8111563301557192 0.4384315033857952
  0.9648981379685746 0.7514201436138421 0.43328491966425303
  0.9255582217976996 0.8373852259684268 0.43875178434700707
  0.9301705728727235 0.7784974371512968 0.43540171912053827
  0.9806217611126047 0.7247299489232549 0.47948636866665223
  0.9490327832656031 0.7506051223552954 0.47860099428537123
  0.9162467772975131 0.8145888863087737 0.4820025989768626
  0.9124150615660884 0.7802975626826948 0.4798784367398598
  0.22693631712767723 0.8359826442716304 0.5256602072413608
  0.3671919043680139 0.3135528434787958 0.8897865276260065
  0.9769525707226557 0.10025200523522564 0.7057004434315467
  0.9426503084419475 0.3484330089876498 0.5344642522843279
  0.22767330972477096 0.9092091283228046 0.03563935599360769
  0.22053699922187978 0.9808605327569468 0.6860878362952693
  0.58050979383252 0.23578557263901403 0.8806695644025451
  0.04148210092178449 0.5276939563565228 0.48248117972350096
  0.15466113893236055 0.9168831868733878 0.041821330753550226
  0.7000147054640578 0.03079190981549633 0.04422803970058755
  0.227385130880492 0.11293415148966728 0.944374183865654
  0.4046484699101055 0.02282211927773295 0.6407220629043079
  0.15489013291861461 0.557806878183918 0.0460696552275557
  0.9469383874469579 0.7070004751279897 0.0899098604538482
  0.9275065479747095 0.6415302384933782 0.12011364358275133
  0.9118155694750962 0.7215518830806005 0.0811453903572377
  0.9386629530203136 0.7351364799535897 0.13237911591053964
  0.9342146153611279 0.6889378876011338 0.12426606783791116
  0.9022475274955423 0.7595842349342566 0.12940050297126943
  0.9015865272323899 0.7133553908414021 0.12330062321632718
  0.9589891296550388 0.7030096927297871 0.1774698894417019
  0.9534014729050473 0.6601099392187232 0.18218078061428516
  0.9216037550837499 0.741758422827411 0.17887378765501383
  0.9249383754114348 0.6775486350177776 0.1727847680016299
  0.9460074286744677 0.69682604810146 0.21898934618583404
  0.9437126464249649 0.6456683480458004 0.21590434106519574
  0.90862742562874 0.726926664531747 0.21716889865342875
  0.9146409921438311 0.6635352502897514 0.22107117243371105
  0.9419871362107464 0.7309465215700417 0.2639575294180497
  0.9306832769690768 0.6964517030879104 0.2632028443945045
  0.9048411937125203 0.7568213966360895 0.25959140045256396
  0.9044565554873154 0.7001433817871685 0.26061850836265715
  0.9232694226927738 0.7287209745520226 0.3063119254955479
  0.9215360132339844 0.6850470541326338 0.305514904482877
  0.9606303660061122 0.7033120087988947 0.3102841456926466
  0.9616683946269147 0.6492315651618089 0.30095550252355663
  0.9414560541528574 0.7036441251176399 0.3512027995302296
  0.9412477572548779 0.6519254436056078 0.34794292836755036
  0.9138079090930616 0.7137023350878358 0.35319259101913775
  0.9055786253704026 0.6758481611789591 0.34431675886417484
  0.9692181043415199 0.7184926003019608 0.3922318950785754
  0.9676388223886462 0.6723973094655925 0.39439471191434505
  0.9315096699267615 0.7465069623487003 0.3936216199390061
  0.9354759172676316 0.6872685498959812 0.39534451062690434
  0.9564969664033975 0.7213189791512197 0.434277054365938
  0.9538244599240089 0.6651625691390218 0.4316227719172743
  0.9227589943281719 0.7370428927384899 0.44362042309646305
  0.9204403377175955 0.6871721036344116 0.43588398125753536
  0.9480340921947213 0.6992605555054915 0.4786654186166494
  0.9398682354257069 0.6684008399732091 0.4838156837285504
  0.9131056325753122 0.7277288424319951 0.48117796753650105
  0.908548496544161 0.6828759402450731 0.4870405816828214
  0.09576471641791116 0.5132477309269929 0.888271635493378
  0.07856227354890169 0.23962432084913945 0.005799294232149757
  0.7905479275221948 0.2649625785720713 0.7736699536252755
  0.6727643436306705 0.7473524292612295 0.9937066553681758
  0.04117324425597386 0.6511355238402834 0.0029309757480279
  0.8838462540490581 0.4709968521501258 0.528662381078927
  0.44549209521432404 0.4090840133617612 0.5573422526688226
  0.6484154758590742 0.11841456770233341 0.49773133928465146
  0.02253321667057928 0.24271845171852488 0.48002569235421005
  0.8802262920113777 0.779203179396874 0.837873401481996
  0.9105171657437788 0.6687716528534811 0.07416529016751668
  0.2475107161024236 0.16727322156586563 0.9905093678415955
  0.15392048281887896 0.06723013056957843 0.950015914590449
  0.9630233826384217 0.5751388995656475 0.12476526437055861
  0.905113411389387 0.5727919563081154 0.07646671135029355
  0.7318625738805299 0.677231283218805 0.7573834826781349
  0.9140268195483543 0.640150487112113 0.16016036011386275
  0.945699635851326 0.5692118938784366 0.16909730334878106
  0.8981041410456493 0.6653740677459393 0.12301844464532846
  0.8903806278102638 0.6267286616557097 0.11897646210093131
  0.9439219405151743 0.6238186354975386 0.16581460756587751
  0.9260324637065286 0.5969222542204187 0.1194968266281416
  0.9379353612347419 0.5957085627655738 0.21672345042001914
  0.914871793561009 0.5835046556289972 0.17261708067078851
  0.9671871510697748 0.5320566666449643 0.21677314918986237
  0.9353660778580747 0.5514037956051713 0.21724436715578327
  0.9089904490676565 0.6206134874708011 0.2191458052760812
  0.9013386234718853 0.5785595361262378 0.21747077266284684
  0.9324688866364483 0.6429237313054308 0.26466619706211036
  0.9289045757082944 0.59951162960845 0.25924350906366145
  0.8968485531166503 0.6676813726069897 0.2639501666373322
  0.894397909164693 0.6208648938484429 0.26406244904327425
  0.9178516937255267 0.6380608884832687 0.3073059008924123
  0.9133633564306105 0.5943736601187206 0.3022274228925071
  0.9530887912570902 0.6051013801823703 0.3031624960436313
  0.9464513659629045 0.5657495683974956 0.30039040910348747
  0.938292463110804 0.6072925215018011 0.3541773629401052
  0.9328995908812763 0.5602532282727576 0.3511107647712607
  0.9048500967843869 0.6251170105029745 0.3458261289112652
  0.9009561647129534 0.577834229023304 0.35234587123662364
  0.9634398659929309 0.6194687142346371 0.3921435417099652
  0.95755002921379 0.5763122993369815 0.39403577635436626
  0.9271120880839061 0.6441336561743092 0.3901408653548014
  0.9239493886459672 0.6032303493421823 0.3952175026595272
  0.942740053456659 0.6189059020419595 0.4363533585282769
  0.9806095157382033 0.5466562971294783 0.43729947585047746
  0.9142279740225628 0.6380332151563997 0.4378572064898291
  0.9116860089245211 0.5906846132938036 0.4394843810283997
  0.9362514538597493 0.610973392994173 0.4839887090754119
  0.9453062573964539 0.5667170078522386 0.43980282129443216
  0.8954275460788468 0.5923526630246846 0.48833827178428324
  0.9512914923556277 0.39792476300674634 0.8489856782799037
  0.5485967005189488 0.5969165589346505 0.9067577371798758
  0.25986011265766834 0.07129458984490682 0.9407388108863814
  0.8715307941718115 0.23352961178099974 0.990069441693724
  0.8933904243045316 0.6623436251330869 0.5269100392681587
  0.5645634300668578 0.500895082196509 0.977992640621822
  0.9519935688858636 0.3130557365877359 0.8654175641462151
  0.8976790385404908 0.2170423460855917 0.5318596686055074
  0.42095134664937306 0.9016605012224996 0.9786847420092682
  0.21568194776493793 0.5407297774397033 0.5824033175360603
  0.5016010235165862 0.7523966321678954 0.8294669465977745
  0.7998762678776148 0.42023345867966866 0.04544473921415671
  0.8354701775023667 0.23098941114502802 0.9208188076551478
  0.8953784733776696 0.4819395964885053 0.08798688619995154
  0.9347340467549883 0.5020399742621507 0.08422505746185578
  0.9240946402324943 0.4673732442478512 0.08386704224946667
  0.8620222268892346 0.561372961112819 0.08497624516456014
  0.9212960652853356 0.5540997455220266 0.13083201161227206
  0.8959053360528302 0.5358980206696092 0.08877415152817171
  0.8809906479854092 0.5261570206376198 0.12570898878902595
  0.8584249919645226 0.5904100091415416 0.12580912260678412
  0.9421944223312375 0.5188127239883118 0.17136853713061614
  0.90888883544844 0.5387723060073831 0.1730240583749491
  0.8924581315355461 0.572799191548922 0.1205848615486722
  0.9038277060298967 0.5027048726457449 0.17440255499478563
  0.9366537810193601 0.49741166344322485 0.21617492325656437
  0.9307411933320644 0.4581613600760305 0.21367341850778906
  0.8996284771208701 0.5287090860689905 0.2227185946192548
  0.8949994851252038 0.48509204829018526 0.20535531699217782
  0.9222411423181845 0.5507861341059993 0.2595306575116445
  0.9186584624080776 0.4995559375210795 0.2585863808846233
  0.8915897353393487 0.5663298957698554 0.25752061837576323
  0.8873200754103365 0.5184974507043578 0.26216837370369384
  0.9106405036208383 0.5473506568636715 0.303569289678274
  0.906223699323785 0.5000230002120896 0.3101847481529602
  0.9428326212698099 0.5224875126658889 0.3049737401001398
  0.940899678654275 0.4763271381113587 0.3099233694374884
  0.9284083775700369 0.5127667915087692 0.35351655337070836
  0.9222189100034709 0.4715487218383381 0.34889088638493027
  0.8932140455282612 0.5420521974145157 0.3568408488646658
  0.8955916999990492 0.47998684139187625 0.35784586843260646
  0.9527431446337078 0.5305875920136359 0.39244725641456263
  0.9532347902665892 0.47063377205160734 0.39232392983754427
  0.9248976520627376 0.5481097363733516 0.39407443095313316
  0.9193900159292228 0.5038953685259615 0.38913952717721956
  0.9389757207173011 0.5290009731958996 0.44179077208816087
  0.9377561045137218 0.4752537761334671 0.433566546026698
  0.9040138824077123 0.5526030330684139 0.4391070385166271
  0.9038448937760923 0.5054261488001869 0.4355250456975566
  0.9288697744732088 0.566173795049052 0.4852367004070305
  0.9571688358534525 0.3868543137808142 0.4812589581243936
  0.8219446195447722 0.6942746551454995 0.8470437448656595
  0.9195811948970782 0.47408448355490196 0.4802484164709149
  0.5674449164400961 0.3613490553908011 0.5822523805313513
  0.21676955219612812 0.5957497282871411 0.888825684742371
  0.9446180937208356 0.6781102839619331 0.8912222698659218
  0.8049941342047081 0.4889843908011971 0.5277162637567264
  0.034704515220483824 0.9869236722024246 0.7146370185274291
  0.8085326223238878 0.9295059172143048 0.004393731579647175
  0.029049614654614215 0.4369957740862917 0.9274066557021433
  0.7751894783971107 0.7875820515084662 0.8749947011645212
  0.07097648774664495 0.21265311617284174 0.7927708475016857
  0.6970827880163023 0.33308565993092665 0.4937480749164765
  0.1839480895653996 0.09358567388579145 0.9859021078076112
  0.8693971750921717 0.7311224615159282 0.999733091385461
  0.44247696933045355 0.6378545265757266 0.7342606698347828
  0.9496023090088117 0.377743227679597 0.12766233451338235
  0.8912728462405987 0.3784546648350674 0.09103397299989464
  0.07763028209159734 0.9509145611207285 0.6957588487677236
  0.9110549555784768 0.4587081783494492 0.13385516937488323
  0.9150352865955138 0.4024877870321036 0.1322460336490706
  0.8812497459984103 0.4781268594512478 0.1305700806882465
  0.8792413591953511 0.42928712885591397 0.12238248446085322
  0.940067493268468 0.41528850989548244 0.17194485879127952
  0.932961342334677 0.37258548413368914 0.17141492264913646
  0.9037153898216236 0.4402746899439944 0.1759568380042528
  0.896479961070534 0.40419752603806974 0.16994199836659782
  0.92460833994363 0.41607948528955196 0.21940166190601482
  0.9233210132736557 0.3646561233929682 0.2103822555270604
  0.8908802670121322 0.43867510598472675 0.2211116677276574
  0.8863048257290566 0.39233089010538136 0.21438944893256728
  0.9138021940018981 0.45884354954851 0.27317020879083886
  0.9131259468176767 0.39656879056792615 0.2542257740046758
  0.8833084400548553 0.48232069350115814 0.2598012397030131
  0.8741389991907784 0.43693422226831624 0.261347423653691
  0.903727805038269 0.434231006865994 0.3022734402719916
  0.9022022654215659 0.3954390991542762 0.30958468152448276
  0.9356428233652105 0.4252627767735587 0.30829803559409724
  0.933966678719707 0.3817324833672086 0.30896988933457037
  0.9274014030089293 0.41451041139432043 0.3523734816643143
  0.9209198259819176 0.36996056330698257 0.3559297047508735
  0.8898497146397484 0.4346960172699312 0.34651638960353204
  0.8886872990520962 0.3951208566760524 0.3445008283821127
  0.9490748495709894 0.4299440430366642 0.3980797836634607
  0.9412063032265198 0.3872657462493313 0.39336208191871375
  0.9183938361303824 0.4569230248457946 0.3960310899288125
  0.9082744596430563 0.4155246586935815 0.39157292620435785
  0.9354672579233781 0.42874768284670994 0.4415165085064335
  0.9329817100426164 0.3769423330495286 0.435882140562356
  0.9028809792952138 0.4485377510094059 0.4387775540795183
  0.8962065212876015 0.4030504252251912 0.4368300985797359
  0.5622226933869628 0.8398647345984571 0.7867664998265531
  0.7976035089385145 0.5830652336828013 0.6480204192905434
  0.9236351340314876 0.41948474601223756 0.49154660348193985
  0.9227802432193198 0.37258940137876073 0.48799590248091884
  0.9347004291154991 0.8852212585722362 0.9539163476755519
  0.5383023954860928 0.44306268482845385 0.8685761970740286
  0.0811672309147367 0.08346081010217299 0.992394239705279
  0.022579141272433774 0.7148122916326277 0.03953224222847518
  0.5647652303568732 0.7459379712375943 0.9420806776721484
  0.2262850938310263 0.6036577640712469 0.4809662875908725
  0.8102366712544343 0.6079838956322293 0.02719866417904985
  0.23892333447451355 0.378841985628272 0.5236133542018919
  0.831881479667205 0.7076828698881675 0.991304548159087
  0.5068823245970256 0.4279138843694865 0.8509920360254263
  0.849674612503809 0.7824577933511981 0.827848975535101
  0.7783354787777386 0.8463643398827358 0.7525534985274459
  0.37887385216574504 0.36917338820336054 0.9283030742545006
  0.006688634956878744 0.6113979804957094 0.6879727081589528
  0.9108099255219502 0.47970011261877116 0.7929714832762379
  0.8848981147630104 0.34253547109988425 0.09104961890891936
  0.9139979664813968 0.34897228899437965 0.12620505613986843
  0.9064304741960401 0.3099052178861346 0.1338505676369348
  0.876279206060335 0.3858846575370405 0.13520605556702908
  0.8762206910207992 0.327913860363222 0.12977563664882677
  0.9343339857185999 0.3200435662300507 0.16568778366801834
  0.924531980180441 0.2772696866756714 0.16978314637261746
  0.9003097058822939 0.34310855805587287 0.1713407426334075
  0.8918631615850551 0.30200745624907055 0.1738893691787749
  0.9235598794539589 0.31228131455089364 0.21247880733637245
  0.912538582456048 0.27820753501637935 0.20870722291382598
  0.8877840295986987 0.33883282902787343 0.21986735778639757
  0.8815307662732026 0.2896710480692401 0.21360531278615205
  0.9060735781717144 0.36270481311318437 0.25827162200894965
  0.9052719587752801 0.3081248371117991 0.264717736527133
  0.8796316948623579 0.37309855791762103 0.26130508766456534
  0.872549519460182 0.3341725560361004 0.2608872498588464
  0.8969508896844199 0.3521999054325491 0.3040349855586567
  0.8925857310040426 0.3011535489939001 0.30388220785876835
  0.9337842899395875 0.3236198629803947 0.30255874802479527
  0.9266713692051132 0.2796661064241636 0.31103146793547426
  0.917068596470231 0.32200902934857756 0.3487491528561182
  0.9116236034488617 0.27229729441832823 0.34801655617472554
  0.8848201108896597 0.3401426999278468 0.3479097958543216
  0.879344408879344 0.3000470518739094 0.3478380087423258
  0.9374365733360385 0.33837737231700954 0.3971704802448478
  0.9382649656720087 0.28993352037873976 0.3954770406798196
  0.9066345285106612 0.37063056193943905 0.3951273085957377
  0.9049769910258604 0.3109609556617861 0.3971189407798252
  0.926526178966933 0.32643888324696696 0.43645275606796335
  0.9308062680632866 0.2772591316690074 0.44300747160173
  0.8980187204396824 0.3501874947555042 0.43126935844283365
  0.8949318903518118 0.29899533295881237 0.4358582115250241
  0.912386550625994 0.3287020449795078 0.4851980458082636
  0.9145410572797514 0.2673665012020049 0.48106752582573836
  0.9593383966201018 0.33843480579764224 0.4779935648761763
  0.9136326872111858 0.2195804151581782 0.49214114802487907
  0.3862318191919928 0.48331951997913203 0.5246680725396757
  0.936093786389337 0.7903245613732353 0.6563422021965134
  0.8014607995596681 0.24687274649419935 0.7178968896901082
  0.7844713003864356 0.6107901882889081 0.8906903089590814
  0.3593243276135817 0.7006371390613577 0.9844829318243103
  0.4164754496720284 0.4722763374922659 0.8212022252423653
  0.8874317863659147 0.2521196575146108 0.041869372897732
  0.04366174876319946 0.9744064519549598 0.08389907034558787
  0.7475584037547744 0.6999094871952979 0.033440461532322184
  0.057739145242108346 0.9034907923130765 0.5308436048664905
  0.6260859619538612 0.9021230389247603 0.5210971238916815
  0.09939227519292974 0.25786614627046667 0.8061674270172021
  0.14336284566104918 0.5097304287259071 0.9088064309145241
  0.9153997701712989 0.22053052339786122 0.08496980273143231
  0.9075780877449969 0.17746512506822776 0.0843612689051298
  0.8418317449866975 0.2704114940149153 0.08587358406450714
  0.9087255768153152 0.2509751378476491 0.12619548452493567
  0.9001913735243497 0.21622950747851316 0.122913156881068
  0.8678222080848419 0.28834654298951806 0.1264826329729187
  0.8717638938980202 0.22018778221292618 0.12835204299709546
  0.9211897652195451 0.22664632515120425 0.172446816366696
  0.9248015760314449 0.17085672968007343 0.17127723864971897
  0.8879836838496918 0.2551367311284019 0.1736013003832022
  0.8874175829491997 0.2014126703454431 0.16898630942946452
  0.9115386036879592 0.2183188648027214 0.21377097535229614
  0.907077557769877 0.17839327942646419 0.21953419195893006
  0.8783154394262412 0.2432391311492351 0.2210251550542266
  0.8761342976095696 0.1956113294140175 0.21257820487605888
  0.9064351885161258 0.25294570774459274 0.2592987299190428
  0.8998627263213897 0.2087993541869135 0.26406613043363303
  0.8738000234778788 0.2800560113675846 0.2540288196204823
  0.8666333460877441 0.23804432570618805 0.2626359102792559
  0.8888440135235959 0.26004237465530533 0.3009849536464267
  0.8888391157887955 0.20448891051458726 0.3059861224487979
  0.919579121320498 0.240906430370993 0.3042853201030522
  0.9235778238981301 0.17815035785111777 0.30081008760438566
  0.9103917703162752 0.2248290276526004 0.34751956847629334
  0.9106140145703493 0.17856510031959916 0.3426693366786311
  0.8776372079907443 0.24488395445285832 0.349205645260604
  0.8763359608703495 0.1939664237096216 0.3499161535998441
  0.941138071239313 0.23301146390585795 0.3900966886704964
  0.9313468752655826 0.19290683021584695 0.3945971883840767
  0.896630861556425 0.27420969049694127 0.39363634550044113
  0.8990745239346525 0.2146092124126189 0.3946837010575075
  0.9250218109225747 0.2330419362811497 0.43764736723937997
  0.9218095488481348 0.1852168561975284 0.44170425941473007
  0.8922555585192352 0.2553658417943983 0.43892480969386866
  0.8872788734936838 0.20523766475017557 0.4363331108813037
  0.7964635417269856 0.10677382219772989 0.4825419226644204
  0.8849610511732304 0.15589582150486764 0.9016792591799706
  0.879068898579931 0.2939225415034591 0.47948084658111406
  0.7642038778714496 0.15995886833630962 0.9517240797169121
  0.5582707628425788 0.4494584516395145 0.5267811906056022
  0.8041568768755623 0.18940732172451424 0.480535564918898
  0.20605114609500524 0.2391794412775672 0.992107091257296
  0.3234184843772349 0.7016726560716027 0.6180373355136479
  0.5184272203024642 0.19912213014892705 0.08025964783692079
  0.8118410893454517 0.980119915036134 0.6080589269462372
  0.5158005820070213 0.9356248166683897 0.8950325088872351
  0.21333270475190574 0.36951562867252746 0.5313203449179495
  0.8090547568283474 0.6336419417889324 0.9515160811616423
  0.9755599712362144 0.6558837981149401 0.9411290382644096
  0.07572212014839105 0.8274750697976657 0.5863092727067014
  0.9341513238541151 0.8448781027758576 0.517621891393015
  0.9152212454384611 0.053085703497677675 0.6704382458801936
  0.008237955985230291 0.4647096634114031 0.6074404533659661
  0.9003080944398237 0.07546045473785773 0.08353811002091176
  0.7935540632519961 0.19377523965950738 0.5384217469199916
  0.9021145993757497 0.15790505014515327 0.12832995465494293
  0.9152168274597086 0.08806074222936255 0.17657052577705756
  0.867263277942631 0.1786235174853699 0.13094981610375228
  0.856572603831588 0.14643291825591656 0.1329994301859902
  0.9195592789765323 0.1273614982201702 0.16994567975695657
  0.8935431745412425 0.10897716047652635 0.12960445199714457
  0.8842309206218969 0.1567241734430481 0.1706528748448738
  0.8809180688194099 0.10913729680205353 0.17307725446563316
  0.9075396104944796 0.12595758296428483 0.2183451028730516
  0.9008605312920186 0.08573206999380346 0.22093680168561644
  0.872743883649161 0.1456866347105634 0.21473365893111107
  0.8711829271021553 0.10251199102131182 0.2140047436400772
  0.8979158179987972 0.1671347799841395 0.25672175666791297
  0.8904947773808443 0.13232014837680067 0.25734207094336353
  0.8676052415858713 0.18844664768402697 0.25598179720580283
  0.860387195114884 0.14440053487803817 0.2590447139842886
  0.8839231106108058 0.1589041977648496 0.29651942714125457
  0.8759441630012041 0.12207893364737213 0.3032029913375777
  0.914072415150845 0.13818464013636664 0.30475653806897307
  0.9181380051216997 0.08252968000274255 0.29861045686502846
  0.9040980125683648 0.12987531963199334 0.34656976976373405
  0.8966153554530517 0.09750535624684328 0.34971919921565064
  0.870440028664727 0.1530032218191772 0.3471477480500589
  0.866125118229727 0.10911304762843761 0.3456273338318923
  0.9308667589118274 0.1424776233273027 0.39914370547714145
  0.9253152470649869 0.1044755095544993 0.39701586184977994
  0.8960528477400372 0.16852030607640933 0.39225030203036915
  0.889527876948248 0.12350700498217043 0.393465160848759
  0.9157152575691032 0.140151518654576 0.4459728315357087
  0.9122397597771366 0.09483063428166459 0.43534833896033626
  0.8782877402811912 0.16798160536728116 0.4322412454975455
  0.8804426197854673 0.11609052397280276 0.434821900139034
  0.9032891400932822 0.13123334389471442 0.4848556765048992
  0.8976845873733502 0.0870429016820817 0.48238362287899395
  0.8694479896698123 0.1570852226864743 0.481406213738744
  0.8915022780332303 0.17438576833859473 0.5320676671607771
  0.869358594124776 0.2157205637355058 0.492801957594276
  0.3386520182055005 0.3083251685338889 0.994174191943738
  0.5706408627002447 0.6799709782673671 0.003090519392647151
  0.616179740461094 0.8006309218041466 0.9138480950108417
  0.7071980722537454 0.032840600649542265 0.7142541539301184
  0.08412654626066808 0.11806571287466515 0.8603519710125657
  0.8735534274791678 0.32306849968460255 0.8483083024538924
  0.7784666062368087 0.636950826126798 0.03341598028643645
  0.081304178605897 0.420200179974421 0.039838717975841695
  0.3535328133618491 0.5908810173623016 0.765316878901256
  0.8794442801274871 0.9742793809197847 0.9280729873570783
  0.2362366003873512 0.22506614318564708 0.7680098159486868
  0.8490339124739997 0.9972716487993789 0.12592287756886972
  0.869119317113132 0.14015804216698913 0.08196523599013288
  0.897943447931073 0.9763711895247627 0.08248357575264584
  0.8567915937774382 0.1161597242242144 0.03834002396079175
  0.8693361824910194 0.10276259920804692 0.08666489892212192
  0.8860075813356771 0.016761256183414317 0.132999982394544
  0.8573802628109575 0.0972634911890792 0.13112817946663405
  0.861619686897214 0.055824437630206156 0.08104691316514095
  0.9109539883792845 0.0340600137223471 0.17215469804172867
  0.9079364705299349 0.9925947242568658 0.17671649290478228
  0.8775064199909264 0.060189667130799214 0.17750964845757647
  0.8749663868301896 0.00880485002364356 0.17176778391502331
  0.8979754737021879 0.031441245373320464 0.22485011963697504
  0.8943147259050325 0.9895114738012212 0.21611602101082428
  0.8623136862076074 0.0628505889232963 0.22129021516005712
  0.8630547842158243 0.004072629717725278 0.2105074227992581
  0.891330781782647 0.06971119069710591 0.26314762353912313
  0.8810646723664718 0.032325294084773325 0.26655475031615267
  0.8514170545023233 0.10227104597310377 0.26331144541008783
  0.8528400650205725 0.04389804864329885 0.2630721550367686
  0.8757441046647527 0.06703776932876714 0.3043166119211016
  0.8732843518186674 0.014048961756051078 0.3086661746299729
  0.9103957258714519 0.04633820359096314 0.31116399798838945
  0.9089085703906365 0.9953560490853384 0.3065567379544052